cif2pos.py
1.0
    10.15020000     0.00000000     0.00000000
    -5.07508466     8.79033991     0.00000000
     0.00000000    -0.00007041    34.93840000
  Mo  Si  N  Ni  Te  O  H
  12  24  48  12  3  24  1
Direct
     0.16686000     0.00008000     0.60979000
     0.16695000     0.50014000     0.60976000
     0.66690000     0.00014000     0.60975000
     0.66681000     0.50013000     0.60980000
     0.33360000     0.33354000     0.60975000
     0.33373000     0.83356000     0.60978000
     0.83367000     0.33353000     0.60982000
     0.83360000     0.83347000     0.60974000
     0.00015000     0.16667000     0.60977000
     0.00031000     0.66682000     0.60980000
     0.50029000     0.16691000     0.60978000
     0.50020000     0.66675000     0.60974000
     0.16692000     0.16680000     0.69601000
     0.16693000     0.66682000     0.69601000
     0.66688000     0.16679000     0.69601000
     0.66694000     0.66682000     0.69601000
     0.16765000     0.16740000     0.52368000
     0.16752000     0.66736000     0.52365000
     0.66737000     0.16758000     0.52364000
     0.66746000     0.66723000     0.52355000
     0.33360000     0.00015000     0.69601000
     0.33358000     0.50013000     0.69601000
     0.83358000     0.00013000     0.69600000
     0.83356000     0.50012000     0.69602000
     0.33300000     0.00037000     0.52366000
     0.33308000     0.49984000     0.52338000
     0.83274000     0.99995000     0.52344000
     0.83286000     0.50017000     0.52379000
     0.00026000     0.33345000     0.69602000
     0.00026000     0.83346000     0.69601000
     0.50024000     0.33348000     0.69601000
     0.50025000     0.83347000     0.69600000
     0.00033000     0.33289000     0.52362000
     0.00030000     0.83288000     0.52351000
     0.50006000     0.33300000     0.52345000
     0.50031000     0.83278000     0.52347000
     0.16708000     0.16702000     0.57390000
     0.16732000     0.66723000     0.57384000
     0.66746000     0.16750000     0.57385000
     0.66725000     0.66711000     0.57383000
     0.16689000     0.16680000     0.64573000
     0.16704000     0.66686000     0.64573000
     0.66699000     0.16687000     0.64573000
     0.66692000     0.66686000     0.64572000
     0.16692000     0.00013000     0.71057000
     0.16689000     0.50011000     0.71056000
     0.66692000     0.00013000     0.71056000
     0.66690000     0.50015000     0.71057000
     0.16622000     0.00024000     0.50940000
     0.16596000     0.50024000     0.50910000
     0.66590000     0.00058000     0.50931000
     0.66641000     0.50021000     0.50933000
     0.33334000     0.00018000     0.57388000
     0.33313000     0.50015000     0.57374000
     0.83312000     0.00004000     0.57376000
     0.83329000     0.50009000     0.57393000
     0.33359000     0.00016000     0.64573000
     0.33353000     0.50015000     0.64570000
     0.83351000     0.00009000     0.64571000
     0.83357000     0.50016000     0.64575000
     0.33357000     0.33347000     0.71056000
     0.33358000     0.83347000     0.71056000
     0.83356000     0.33346000     0.71057000
     0.83362000     0.83349000     0.71056000
     0.33412000     0.33387000     0.50936000
     0.33440000     0.83442000     0.50925000
     0.83465000     0.33467000     0.50908000
     0.83445000     0.83410000     0.50928000
     0.00022000     0.33314000     0.57382000
     0.00028000     0.83293000     0.57380000
     0.50032000     0.33319000     0.57381000
     0.50026000     0.83312000     0.57378000
     0.00029000     0.33342000     0.64572000
     0.00024000     0.83341000     0.64573000
     0.50021000     0.33349000     0.64573000
     0.50029000     0.83344000     0.64570000
     0.00024000     0.16679000     0.71056000
     0.00024000     0.66680000     0.71057000
     0.50023000     0.16680000     0.71056000
     0.50024000     0.66681000     0.71056000
     0.50017000     0.16604000     0.50929000
     0.50038000     0.66584000     0.50922000
     0.00026000     0.16593000     0.50928000
     0.00010000     0.66548000     0.50919000
     0.98405000     0.98424000     0.35379000
     0.00115000     0.50312000     0.35139000
     0.50300000     0.99996000     0.34974000
     0.49635000     0.50202000     0.34986000
     0.99360000     0.00106000     0.44101000
     0.99878000     0.49937000     0.44088000
     0.50113000     0.99378000     0.44109000
     0.51501000     0.51738000     0.43660000
     0.33258000     0.16719000     0.39528000
     0.35453000     0.67683000     0.39486000
     0.82094000     0.14403000     0.39507000
     0.83103000     0.66923000     0.39540000
     0.16447000     0.33233000     0.39511000
     0.16777000     0.83438000     0.39629000
     0.66594000     0.33303000     0.39398000
     0.31720000     0.32459000     0.36234000
     0.31816000     0.82467000     0.36286000
     0.82171000     0.32396000     0.36332000
     0.81622000     0.80851000     0.36547000
     0.17474000     0.49520000     0.36317000
     0.17086000     0.99198000     0.36385000
     0.67384000     0.49309000     0.36130000
     0.68136000     0.01197000     0.35793000
     0.00321000     0.17485000     0.36342000
     0.99665000     0.68059000     0.36459000
     0.50427000     0.17850000     0.36214000
     0.48963000     0.67155000     0.35798000
     0.00192000     0.32247000     0.42690000
     0.00785000     0.82627000     0.42896000
     0.50799000     0.32985000     0.42630000
     0.49065000     0.81555000     0.43072000
     0.17384000     0.18074000     0.42770000
     0.17747000     0.67924000     0.42677000
     0.67332000     0.18025000     0.42682000
     0.69328000     0.68449000     0.42544000
     0.32254000     0.49454000     0.42665000
     0.32264000     0.99564000     0.42779000
     0.82033000     0.50198000     0.42562000
     0.82272000     0.00689000     0.43094000
     0.66327000     0.84591000     0.39352000
