Generated by VASPKIT code               
   1.00000000000000     
    10.1502230000000004    0.0000000000000000    0.0000000000000000
    -5.0750975100000000    8.7903671299999999    0.0000000000000000
     0.0000000000000000   -0.0000535100000000   34.9384000000000015
   Mo   N    Si   Ni   O    Te   H 
    12    48    24    12    24     4     1
Selective dynamics
Direct
  0.1666199152342926  0.0000608544920411  0.6095210269103575   F   F   F
  0.1666281954798094  0.5000274298370755  0.6095157441728034   F   F   F
  0.6665970569667863  0.0000067537310713  0.6095187763865297   F   F   F
  0.6666341389274422  0.5000295947766418  0.6095208710921796   F   F   F
  0.3333488276104362  0.3333853399826481  0.6095200289628195   F   F   F
  0.3333588172947444  0.8334058844495118  0.6095195105663862   F   F   F
  0.8333807576312751  0.3333869559070308  0.6095203948035390   F   F   F
  0.8333261074226286  0.8333598674173999  0.6095191393619999   F   F   F
  0.9999773292674661  0.1666314330146292  0.6095165758477208   F   F   F
  0.9999986702369270  0.6666485104936086  0.6095200433122017   F   F   F
  0.4999904249096119  0.1666729279557728  0.6095232562468667   F   F   F
  0.4999813104941495  0.6666399212000798  0.6095188336564235   F   F   F
  0.1670147726115374  0.1671270932611364  0.5735801565660239   F   F   F
  0.1670429980317323  0.6671249976814977  0.5735809894812292   F   F   F
  0.6670202737828959  0.1670790751121345  0.5735904204534918   F   F   F
  0.6670113774036821  0.6670784633169262  0.5735799766775216   F   F   F
  0.1666174481514915  0.1667100761214257  0.6454794180762917   F   F   F
  0.1667348540750382  0.6667993547747812  0.6454704074196300   F   F   F
  0.6667027801868386  0.1667386367493791  0.6454652577186053   F   F   F
  0.6667288317838924  0.6666964172965208  0.6454732279678126   F   F   F
  0.1666605082434245  0.0000088922438621  0.7103046557129247   F   F   F
  0.1666303075965914  0.5000124227990597  0.7102673987713359   F   F   F
  0.6666663417872556  0.0000263340446409  0.7103102673035764   F   F   F
  0.6666745617631733  0.5000164820528425  0.7103364727425330   F   F   F
  0.1657739357836121  0.0001024389973168  0.5090048029728180   F   F   F
  0.1657617142369574  0.5000868746768745  0.5090257617629987   F   F   F
  0.6657698957418035  0.0000941539964003  0.5090019125441501   F   F   F
  0.6657566786034295  0.5001139521627991  0.5090035579765910   F   F   F
  0.3329203919383659  0.0000087864053384  0.5735860554462846   F   F   F
  0.3329115420336421  0.4999718667940058  0.5735782347682417   F   F   F
  0.8328629060684420  0.9999288623476374  0.5735886207773149   F   F   F
  0.8329305951091825  0.4999857810960222  0.5735909870627509   F   F   F
  0.3332820534116223  0.0000187557386511  0.6454708061089747   F   F   F
  0.3332651145761361  0.5000358509338128  0.6454675650914510   F   F   F
  0.8332625549236710  0.9999984434771179  0.6454706603456870   F   F   F
  0.8333102571860280  0.5000167388917873  0.6454739764986641   F   F   F
  0.3333572200856736  0.3333157560211575  0.7102703473385930   F   F   F
  0.3333400872649221  0.8333471257948020  0.7103360817449413   F   F   F
  0.8333314321845080  0.3333496067925452  0.7103046359013376   F   F   F
  0.8333470911236418  0.8333582498643253  0.7103131635173057   F   F   F
  0.3343153919473068  0.3342059650103124  0.5090218484560580   F   F   F
  0.3342760836654861  0.8341913628044182  0.5089969840962425   F   F   F
  0.8342836908194258  0.3342324785353554  0.5089963886831725   F   F   F
  0.8342729324526275  0.8341928231334492  0.5089964748691571   F   F   F
  0.0000357194811258  0.3329650156587434  0.5735803074727244   F   F   F
  0.0000141618363259  0.8329814642742832  0.5735926516528735   F   F   F
  0.5000460377233793  0.3330125130831689  0.5735822284258703   F   F   F
  0.4999900677546592  0.8329589886893345  0.5735795450744590   F   F   F
  0.9999726824095276  0.3332559898991221  0.6454710378401387   F   F   F
  0.9999996523984294  0.8333212169203179  0.6454642124839012   F   F   F
  0.5000554923268794  0.3333566194067288  0.6454712072404050   F   F   F
  0.4999512654946088  0.8333389863624205  0.6454712391442641   F   F   F
  0.0000022874549970  0.1666784425095074  0.7103330084339490   F   F   F
  0.0000008751629608  0.6666791356762829  0.7103051491929691   F   F   F
  0.4999841438875663  0.1667033150203636  0.7103133909383885   F   F   F
  0.5000802964828637  0.6667399277913191  0.7102710022973753   F   F   F
  0.4998601729921361  0.1656903630287161  0.5089983194699599   F   F   F
  0.4998669432801037  0.6656728253094357  0.5090276265335874   F   F   F
  0.9998575642400809  0.1656762622916759  0.5090080072958969   F   F   F
  0.9998470602224714  0.6656773578914823  0.5089957445047375   F   F   F
  0.1666363104252895  0.1666452994131618  0.6957628534006517   F   F   F
  0.1666821940274943  0.6667264580721124  0.6957489225744382   F   F   F
  0.6666695278630570  0.1666893725761298  0.6957579040494011   F   F   F
  0.6666952089645051  0.6666788085944546  0.6957580714097702   F   F   F
  0.1672562884742277  0.1672991425071828  0.5233389681022658   F   F   F
  0.1672328892486945  0.6672955282675659  0.5233444161006631   F   F   F
  0.6672460687459463  0.1672971842866318  0.5233455873489206   F   F   F
  0.6672403844977310  0.6672980010199794  0.5233416152698709   F   F   F
  0.3333328414762065  0.0000070674844466  0.6957635976346310   F   F   F
  0.3333387769020391  0.5000196297879214  0.6957658615091731   F   F   F
  0.8333249026711371  0.0000043782919548  0.6957641149512881   F   F   F
  0.8333173405521634  0.4999997278725132  0.6957632089960555   F   F   F
  0.3327015800645370  0.9999811050146548  0.5233412222820490   F   F   F
  0.3326956542346409  0.4999595678922617  0.5233415150889797   F   F   F
  0.8326780195695633  0.9999632295203966  0.5233428242798155   F   F   F
  0.8326562573868799  0.4999692071307535  0.5233366505517125   F   F   F
  0.9999630347263775  0.3332994570847276  0.6957579775353082   F   F   F
  0.9999908081725337  0.8333386342891913  0.6957614983649947   F   F   F
  0.5000242335475278  0.3333363424110871  0.6957573192708892   F   F   F
  0.5000057160435603  0.8333569322299681  0.6957605987872029   F   F   F
  0.0000009990497887  0.3327212497099268  0.5233434610166583   F   F   F
  0.9999857195840605  0.8327242477493684  0.5233429899958537   F   F   F
  0.5000110577592451  0.3327322565879598  0.5233409959278177   F   F   F
  0.5000042001654847  0.8327202461560717  0.5233389425378832   F   F   F
  0.9998430036276034  0.9998902324599470  0.3492392696876010   F   F   F
  0.9998482338805132  0.4998683137159219  0.3492468535655462   F   F   F
  0.4998401668645158  0.9998549995370638  0.3492457721919777   F   F   F
  0.4998524212715338  0.4999074002943829  0.3492427364188089   F   F   F
  0.9997682772252858  0.9998082695175796  0.4407368243800107   F   F   F
  0.9997393875982894  0.4998150303118649  0.4407453668886916   F   F   F
  0.4997382075024177  0.9998427112520929  0.4407424222797260   F   F   F
  0.4997877171792027  0.4998077596864618  0.4407417789411667   F   F   F
  0.3331172644328646  0.1665098288912361  0.3945939070440829   F   F   F
  0.3331536221846250  0.6665288822548945  0.3946046253060089   F   F   F
  0.8331418186310842  0.1665302303049501  0.3945979637023669   F   F   F
  0.8331084937912507  0.6664869299353100  0.3945871273884478   F   F   F
  0.3183148535077862  0.3245182667375630  0.3620049065852342   F   F   F
  0.3183116060265974  0.8245115753708632  0.3620034433672998   F   F   F
  0.8183099742233821  0.3245025054304236  0.3620026174559712   F   F   F
  0.8182986602709263  0.8244989754448397  0.3619999569825438   F   F   F
  0.1751459289939419  0.4936630469504308  0.3619945019478479   F   F   F
  0.1751408902036644  0.9936445508465397  0.3619860965401429   F   F   F
  0.6751489872816236  0.4936665905914097  0.3619811266855422   F   F   F
  0.6751488028069161  0.9936593097764757  0.3619951166619657   F   F   F
  0.0059456833517544  0.1813994378975821  0.3619738061552198   F   F   F
  0.0059060444017831  0.6813436828170296  0.3619754127565926   F   F   F
  0.5059254749725781  0.1813492460380175  0.3619719822810339   F   F   F
  0.5059157924434814  0.6813734042900847  0.3619761925067593   F   F   F
  0.0059846396218362  0.3245007959894295  0.4269670141727673   F   F   F
  0.0059459222505609  0.8244603442217553  0.4269602123651168   F   F   F
  0.5059599686268541  0.3244756112439475  0.4269583778389645   F   F   F
  0.5059867982996167  0.8245015645356730  0.4269669769520874   F   F   F
  0.1750952849255398  0.1813294705919404  0.4269559402253194   F   F   F
  0.1750793568199143  0.6813210444851308  0.4269502636326692   F   F   F
  0.6750590478649627  0.1813334576340893  0.4269484749170473   F   F   F
  0.6751076866380359  0.6813342481387963  0.4269464873143676   F   F   F
  0.3182842908575054  0.4936778517950984  0.4269445375712593   F   F   F
  0.3182300567692948  0.9936611011345917  0.4269459204687962   F   F   F
  0.8182133936401783  0.4936086520690992  0.4269439211886237   F   F   F
  0.8182698392176917  0.9936528421547806  0.4269432505303641   F   F   F
  0.1664477380198903  0.3331384613790860  0.3944772337459170   F   F   F
  0.1664002854150723  0.8331221280315333  0.3944729454241553   F   F   F
  0.6663913334329692  0.3331006065452442  0.3944731225524549   F   F   F
  0.6664080117479898  0.8331421648680006  0.3944658358022224   F   F   F
  0.3345010280857582  0.5008461113950695  0.7864960803569581   T   T   T
 
  0.00000000E+00  0.00000000E+00  0.00000000E+00
  0.00000000E+00  0.00000000E+00  0.00000000E+00
  0.00000000E+00  0.00000000E+00  0.00000000E+00
  0.00000000E+00  0.00000000E+00  0.00000000E+00
  0.00000000E+00  0.00000000E+00  0.00000000E+00
  0.00000000E+00  0.00000000E+00  0.00000000E+00
  0.00000000E+00  0.00000000E+00  0.00000000E+00
  0.00000000E+00  0.00000000E+00  0.00000000E+00
  0.00000000E+00  0.00000000E+00  0.00000000E+00
  0.00000000E+00  0.00000000E+00  0.00000000E+00
  0.00000000E+00  0.00000000E+00  0.00000000E+00
  0.00000000E+00  0.00000000E+00  0.00000000E+00
  0.00000000E+00  0.00000000E+00  0.00000000E+00
  0.00000000E+00  0.00000000E+00  0.00000000E+00
  0.00000000E+00  0.00000000E+00  0.00000000E+00
  0.00000000E+00  0.00000000E+00  0.00000000E+00
  0.00000000E+00  0.00000000E+00  0.00000000E+00
  0.00000000E+00  0.00000000E+00  0.00000000E+00
  0.00000000E+00  0.00000000E+00  0.00000000E+00
  0.00000000E+00  0.00000000E+00  0.00000000E+00
  0.00000000E+00  0.00000000E+00  0.00000000E+00
  0.00000000E+00  0.00000000E+00  0.00000000E+00
  0.00000000E+00  0.00000000E+00  0.00000000E+00
  0.00000000E+00  0.00000000E+00  0.00000000E+00
  0.00000000E+00  0.00000000E+00  0.00000000E+00
  0.00000000E+00  0.00000000E+00  0.00000000E+00
  0.00000000E+00  0.00000000E+00  0.00000000E+00
  0.00000000E+00  0.00000000E+00  0.00000000E+00
  0.00000000E+00  0.00000000E+00  0.00000000E+00
  0.00000000E+00  0.00000000E+00  0.00000000E+00
  0.00000000E+00  0.00000000E+00  0.00000000E+00
  0.00000000E+00  0.00000000E+00  0.00000000E+00
  0.00000000E+00  0.00000000E+00  0.00000000E+00
  0.00000000E+00  0.00000000E+00  0.00000000E+00
  0.00000000E+00  0.00000000E+00  0.00000000E+00
  0.00000000E+00  0.00000000E+00  0.00000000E+00
  0.00000000E+00  0.00000000E+00  0.00000000E+00
  0.00000000E+00  0.00000000E+00  0.00000000E+00
  0.00000000E+00  0.00000000E+00  0.00000000E+00
  0.00000000E+00  0.00000000E+00  0.00000000E+00
  0.00000000E+00  0.00000000E+00  0.00000000E+00
  0.00000000E+00  0.00000000E+00  0.00000000E+00
  0.00000000E+00  0.00000000E+00  0.00000000E+00
  0.00000000E+00  0.00000000E+00  0.00000000E+00
  0.00000000E+00  0.00000000E+00  0.00000000E+00
  0.00000000E+00  0.00000000E+00  0.00000000E+00
  0.00000000E+00  0.00000000E+00  0.00000000E+00
  0.00000000E+00  0.00000000E+00  0.00000000E+00
  0.00000000E+00  0.00000000E+00  0.00000000E+00
  0.00000000E+00  0.00000000E+00  0.00000000E+00
  0.00000000E+00  0.00000000E+00  0.00000000E+00
  0.00000000E+00  0.00000000E+00  0.00000000E+00
  0.00000000E+00  0.00000000E+00  0.00000000E+00
  0.00000000E+00  0.00000000E+00  0.00000000E+00
  0.00000000E+00  0.00000000E+00  0.00000000E+00
  0.00000000E+00  0.00000000E+00  0.00000000E+00
  0.00000000E+00  0.00000000E+00  0.00000000E+00
  0.00000000E+00  0.00000000E+00  0.00000000E+00
  0.00000000E+00  0.00000000E+00  0.00000000E+00
  0.00000000E+00  0.00000000E+00  0.00000000E+00
  0.00000000E+00  0.00000000E+00  0.00000000E+00
  0.00000000E+00  0.00000000E+00  0.00000000E+00
  0.00000000E+00  0.00000000E+00  0.00000000E+00
  0.00000000E+00  0.00000000E+00  0.00000000E+00
  0.00000000E+00  0.00000000E+00  0.00000000E+00
  0.00000000E+00  0.00000000E+00  0.00000000E+00
  0.00000000E+00  0.00000000E+00  0.00000000E+00
  0.00000000E+00  0.00000000E+00  0.00000000E+00
  0.00000000E+00  0.00000000E+00  0.00000000E+00
  0.00000000E+00  0.00000000E+00  0.00000000E+00
  0.00000000E+00  0.00000000E+00  0.00000000E+00
  0.00000000E+00  0.00000000E+00  0.00000000E+00
  0.00000000E+00  0.00000000E+00  0.00000000E+00
  0.00000000E+00  0.00000000E+00  0.00000000E+00
  0.00000000E+00  0.00000000E+00  0.00000000E+00
  0.00000000E+00  0.00000000E+00  0.00000000E+00
  0.00000000E+00  0.00000000E+00  0.00000000E+00
  0.00000000E+00  0.00000000E+00  0.00000000E+00
  0.00000000E+00  0.00000000E+00  0.00000000E+00
  0.00000000E+00  0.00000000E+00  0.00000000E+00
  0.00000000E+00  0.00000000E+00  0.00000000E+00
  0.00000000E+00  0.00000000E+00  0.00000000E+00
  0.00000000E+00  0.00000000E+00  0.00000000E+00
  0.00000000E+00  0.00000000E+00  0.00000000E+00
  0.00000000E+00  0.00000000E+00  0.00000000E+00
  0.00000000E+00  0.00000000E+00  0.00000000E+00
  0.00000000E+00  0.00000000E+00  0.00000000E+00
  0.00000000E+00  0.00000000E+00  0.00000000E+00
  0.00000000E+00  0.00000000E+00  0.00000000E+00
  0.00000000E+00  0.00000000E+00  0.00000000E+00
  0.00000000E+00  0.00000000E+00  0.00000000E+00
  0.00000000E+00  0.00000000E+00  0.00000000E+00
  0.00000000E+00  0.00000000E+00  0.00000000E+00
  0.00000000E+00  0.00000000E+00  0.00000000E+00
  0.00000000E+00  0.00000000E+00  0.00000000E+00
  0.00000000E+00  0.00000000E+00  0.00000000E+00
  0.00000000E+00  0.00000000E+00  0.00000000E+00
  0.00000000E+00  0.00000000E+00  0.00000000E+00
  0.00000000E+00  0.00000000E+00  0.00000000E+00
  0.00000000E+00  0.00000000E+00  0.00000000E+00
  0.00000000E+00  0.00000000E+00  0.00000000E+00
  0.00000000E+00  0.00000000E+00  0.00000000E+00
  0.00000000E+00  0.00000000E+00  0.00000000E+00
  0.00000000E+00  0.00000000E+00  0.00000000E+00
  0.00000000E+00  0.00000000E+00  0.00000000E+00
  0.00000000E+00  0.00000000E+00  0.00000000E+00
  0.00000000E+00  0.00000000E+00  0.00000000E+00
  0.00000000E+00  0.00000000E+00  0.00000000E+00
  0.00000000E+00  0.00000000E+00  0.00000000E+00
  0.00000000E+00  0.00000000E+00  0.00000000E+00
  0.00000000E+00  0.00000000E+00  0.00000000E+00
  0.00000000E+00  0.00000000E+00  0.00000000E+00
  0.00000000E+00  0.00000000E+00  0.00000000E+00
  0.00000000E+00  0.00000000E+00  0.00000000E+00
  0.00000000E+00  0.00000000E+00  0.00000000E+00
  0.00000000E+00  0.00000000E+00  0.00000000E+00
  0.00000000E+00  0.00000000E+00  0.00000000E+00
  0.00000000E+00  0.00000000E+00  0.00000000E+00
  0.00000000E+00  0.00000000E+00  0.00000000E+00
  0.00000000E+00  0.00000000E+00  0.00000000E+00
  0.00000000E+00  0.00000000E+00  0.00000000E+00
  0.00000000E+00  0.00000000E+00  0.00000000E+00
  0.00000000E+00  0.00000000E+00  0.00000000E+00
  0.00000000E+00  0.00000000E+00  0.00000000E+00
  0.00000000E+00  0.00000000E+00  0.00000000E+00
