Mo N  Si Ni O  Te
 1.0000000000000000
    10.1502227782999999    0.0000000000000000    0.0000000000000000
    -5.0750976461999997    8.7903675242000006    0.0000000000000000
     0.0000000000000000   -0.0000537204000000   34.9384002684999970
 Mo  N   Si  Ni  O   Te 
  12  48  24  12  24   4
Cartesian
  0.9251277421671491  0.7085914425295533 21.3874054979842541
 -1.3986686784883047  5.0761556998418698 21.2922046486745344
  5.9671636913481363  0.5022253695698208 21.4160232948233364
  3.5168127758659216  4.9012538933274241 21.3781260505757729
  0.9319394708381697  3.4880370111822097 21.4510590344567902
 -1.8779852206426928  7.9834137393521329 21.4111652700617441
  6.0910846383378932  3.5303742369435236 21.4509354817823308
  3.5210331235082184  8.0016113077220012 21.5870821126519061
  8.4244943525718661  2.1207463828468036 21.4488994207988348
  6.2363295711064994  6.5619369579524793 21.5063113069350074
  3.6108246491261613  2.1845810729578141 21.4040015054145414
  0.9270548347964448  6.4775282540479688 21.4325765394621151
  0.0771947301265196  2.2131903698703259 20.1117615105511547
 -2.3704701461939459  6.4297252034051953 20.1095046332260772
  5.1881230304793622  2.1092752950982958 20.1576820476576444
  2.6287966098555908  6.5293172411554989 20.2634867385227970
  0.0790695445811117  2.1472508118968010 22.7021123808125473
 -2.3509747412187969  6.4842450897077724 22.7256243438581471
  5.2387417660371538  2.0730587412827823 22.7341486191722950
  2.7420679882308563  6.5164882268231503 22.6982509266588472
  0.9320459714918219  0.7216600866070438 25.0002281871598981
 -1.5943470669920576  5.0871316035227068 24.9345801763800452
  6.0147533980457606  0.6878097770836892 25.0630536079005850
  3.4757019714734634  5.0286970996535194 24.9097095013456240
  0.9167886922211110  0.6246252951853066 17.9277357379100941
 -1.5470590100431743  5.0511576988138192 17.8986512470440502
  6.0054131447282737  0.6536616054461925 17.9336569905106629
  3.4746886759494582  5.0709027315599693 18.0398215171885248
 -2.4278147364729152  9.4521209989103898 20.1409522203363913
  0.1534585899815042  5.0111610922467138 20.0669502736235721
  2.6057094518233814  9.3683057574552873 20.2398023040733790
  5.2462907949152866  4.9206579382081062 20.2056388387589969
 -2.4366899209186821  9.5658766069485992 22.7282680484627271
  0.1306088413564735  5.1008613231361020 22.6977931804893664
  2.5934865028321066  9.4819353122385621 22.7419237280360740
  5.1761338637782286  5.1098403750968071 22.6918556425028157
  0.9414236091706584  3.6061067510415139 24.9309991136877436
 -1.6144800789304330  8.0037591266123709 24.9670186572836350
  5.9918920952049293  3.6213501431750785 24.9126795426962424
  3.4522532791255367  7.9856692844328361 24.9897368946796092
  1.0024912828434789  3.5868900396004118 17.8435347665626587
 -1.6147354823074318  8.0135721839913092 17.9130180166389188
  6.0707421643075214  3.5805862382304876 17.9161239783509103
  3.4921029885628134  7.9661748365645266 18.0171580514555778
 -2.3842907529468009  3.5937528777519638 20.1155571721736379
 -4.9607297341621832  7.9611059108063236 20.2210298010372398
  2.6364642648225503  3.5532877614519998 20.1464381956472351
  0.0346687857663115  7.9228468639353853 20.1516399460697926
 -2.4084168117897264  3.5988021872069731 22.7281840466856160
 -5.0007712267730176  7.9462204278469590 22.7566679870177566
  2.5992098429248580  3.5745029711019853 22.6660412565977865
  0.1058394578836671  7.9283957379592858 22.6910211859932147
  8.5028303358410415  2.1755004345267839 24.9536996326125866
  6.0147659795808170  6.5801014971024694 24.9461092230935328
  3.4959618273903144  2.1585776426675074 24.9828483603193519
  0.9112411979446593  6.5409828444698075 24.9346822305224194
  3.5336917202989384  2.1309615986668229 17.8998178822077705
  0.9987366019210647  6.5579295195281500 17.9133450550803524
  8.5709184488368191  2.0585926085409030 17.9285572276242178
  6.0286263326713758  6.4692965589296936 17.9799322147918268
  0.0277325263010133  2.1937734035808956 24.4730188152858972
 -2.4454657812316363  6.5276438113989164 24.5157953493435095
  5.1628571162747354  2.1302059555518298 24.5060337105664878
  2.6222194956342295  6.5281260934206955 24.4918058339131228
  0.1015701824172932  2.1340302153740449 18.3567747102762198
 -2.4204226121287262  6.5106019153534067 18.3176801266253726
  5.1873643543048269  2.1589448559789450 18.3507098054384947
  2.6437384671292503  6.5018563254677266 18.4723719632277366
  2.6118815070472223  0.6700111008989933 24.4659218804088177
  0.0990966750280440  5.0437905569181964 24.4955491340727782
  7.6757679979909001  0.6875454936237997 24.4893795945161621
  5.1366379356471548  5.0395884511647866 24.4388790148752229
 -2.4507346083895669  9.4932711355571069 18.3269233778251603
  0.1817256883123464  5.0440393392044642 18.3049642052680781
  2.6649771442431054  9.4134402805800157 18.4233932739511204
  5.1724853037184948  4.9883882881170374 18.4419518927365296
  7.6734345824722583  3.6131118098166821 24.4434445106627827
  5.1835061992459668  8.0623072056735410 24.5415907092376315
  2.6018936178307621  3.5661317469396687 24.4898552748880647
  0.0691991476322617  8.0145512197571627 24.4637948104739991
 -2.3829673290106164  3.5789290808563057 18.3970476012378512
 -4.9735253224962914  7.9567009299314559 18.4350897337652668
  2.6650096752002277  3.5902458545791904 18.3450848696373257
  0.0793949271216887  7.9781899421328388 18.3839484251218046
  1.5159410331353123 -0.6116725074937497 12.5127006289888261
 -1.0895038628320393  3.5499494184046561 12.3250537526596204
  5.9611952503238097 -1.1454094101899432 11.9935982516344080
  3.2668275670524425  3.2455909495865742 12.1674841684625150
  0.9022425896934511 -1.3827126538151600 15.0420508527195622
 -1.7394277971072076  3.0626169236730352 15.0503703328121183
  6.3241764959422770 -0.7668218946679547 14.8761850197506824
  4.2309841814173614  3.4856874112493266 14.8856679402444634
  3.7931536777426440  0.2151416491719388 13.6643705904407291
  1.3037450849405599  4.6966471685958027 13.6997762036409085
  8.7732687845713944  0.6610060969655214 13.5547360756352759
  6.0556128515244865  4.9739276035132400 13.3497714156795748
  2.8448890044798847  1.3384264116119258 12.4589454785089391
  0.2119704719897179  5.9688497585393421 12.5770453009856329
  7.8731411871405337  2.0926731391166937 12.5139287813218605
  5.2596548778954615  6.7373621592034398 12.4133212612917436
  0.8094559479510119  3.2571889108108656 12.4864626040551610
 -1.6158327267920853  7.6203933961466559 12.3632135628392863
  5.1065060630242938  3.3085682791444455 12.5245440782273487
  2.5924115702153450  7.8816639986236972 12.5196277369780073
  0.2704076657655944  0.6688371750199688 12.5637962856897278
 -2.3285249760044211  5.1793634365994503 12.3404291901728520
  5.6470975307537659  0.6651455433402086 12.3368986374371445
  2.8928258568836664  5.1663677152570306 12.2466338734799507
 -0.1230408288975860  2.0140460835461056 14.9084348592820124
 -3.0319567099364351  6.0412105510605372 14.8493166349615908
  4.7572270873518532  1.6025395470077561 14.8386312082674419
  1.9972038440012700  6.3124773118673554 14.7796965032751864
  2.0089355126532245  0.3079284433808406 14.7552970245106501
 -0.6633296304350405  4.4700967183192599 14.4224971788261502
  7.3440587971474631  0.9772783180612186 14.8157380269557652
  4.4756892877337870  5.4275437353660898 14.7420842483697605
  2.3089146445246853  3.1468164881270262 14.7346973791944134
 -0.7089385412456558  7.5869902456655609 14.7962463247639278
  6.6001816000819185  3.4742554021326955 14.7649999482516581
  4.0933073308178907  8.0083864297587368 14.6590209107730018
  1.3487050847514646  1.8253174912375225 13.7181603038911000
 -1.4126014662259845  6.1296250497392704 13.7183278792299923
  6.1384970134946544  2.0008551910993679 13.5587805460162230
  3.5385758504440394  6.4940542643200256 13.4654171438243910
Cartesian
 -0.0007412056756422 -0.0003579056078979 -0.0011984855410317
 -0.0010767619079540  0.0009077527106813 -0.0014011545650635
  0.0007423666429439 -0.0005210595738901 -0.0030738964939340
 -0.0006078628555895  0.0009680120550652 -0.0026196334189335
  0.0009274802112836  0.0024937414681175 -0.0028445182796459
  0.0008273344310684  0.0009255046868969 -0.0031854185236741
 -0.0004923401909446  0.0010019734498755 -0.0031297836226633
 -0.0022979194590640 -0.0021109873174575 -0.0014364564236050
  0.0015007839862318  0.0014975119654677 -0.0021099748723877
  0.0008006850668700 -0.0011032188603858 -0.0035494973846852
 -0.0018743840952619 -0.0000945994053571 -0.0020694737956230
 -0.0011216748622764 -0.0005092269328474 -0.0046384175772664
 -0.0023820498696980  0.0050058009845088 -0.0034906529467053
 -0.0001904234513368  0.0044400366617161 -0.0046199871287409
 -0.0018241313152783  0.0008178963530171 -0.0076219758241963
 -0.0027605785992835 -0.0034946016025113 -0.0020732597599118
  0.0031327516882829 -0.0008520383423371  0.0010470316999474
  0.0009203568316415 -0.0005501463685093 -0.0052794526365543
 -0.0047657222438457 -0.0049704793729931  0.0002559298166531
 -0.0033460584883135 -0.0047551916375219 -0.0058637930556695
 -0.0003351388167372 -0.0009465134414978 -0.0006105501094922
 -0.0010043353269326 -0.0010310068255089  0.0018091930847046
 -0.0008787222596693  0.0011381758639946 -0.0022337015575420
 -0.0029267785992488  0.0026333876320609  0.0005044294483386
  0.0013070562555311  0.0025519301306476 -0.0018454264089751
  0.0007419429879671 -0.0022856109821513 -0.0055814969631599
 -0.0033690134463445 -0.0021495230562811 -0.0022784632942881
 -0.0012479586773319 -0.0000190028852992 -0.0043041063799630
 -0.0034661728822576 -0.0027944722146206 -0.0018793380588399
  0.0003685758586110 -0.0020073884385929 -0.0021149175024495
 -0.0032601917208069  0.0012922897518719  0.0002957674482337
  0.0031225632895113  0.0013362938761726 -0.0007786310524784
 -0.0005669026075670  0.0036692030676083 -0.0038045006788473
  0.0042662915341258  0.0020545049078925  0.0028759976600680
  0.0013810156494973  0.0018221443983023 -0.0036534955930445
 -0.0016893645121358  0.0007441779429182 -0.0059955010594506
  0.0007275113677298 -0.0034748044398991 -0.0017610974046941
 -0.0044505869720054  0.0034258878717427 -0.0058067126793423
 -0.0017533094998219 -0.0002733490840568 -0.0047625399739570
 -0.0028594539824192  0.0009764994841844 -0.0052776197649224
 -0.0016779038671177 -0.0006663358776188 -0.0021661162387617
 -0.0000800641833635 -0.0025109499750389 -0.0006004894758174
 -0.0000721992945707  0.0025643441289634 -0.0005079911929837
 -0.0007417858212633 -0.0001545403063263 -0.0015601901643193
 -0.0014169714325970 -0.0031480471982844 -0.0001148100774982
  0.0032879088667816 -0.0007662847004085 -0.0018143772950838
  0.0018276158018149 -0.0012981474226192 -0.0030197494119456
  0.0003076364458924 -0.0001250920816790  0.0007567446862280
 -0.0022532563730163 -0.0007219185077449 -0.0032397264821671
 -0.0037437061533671  0.0028990250698958 -0.0040693211306094
  0.0024771913185769 -0.0009846678509391 -0.0030392071113308
  0.0008581478806001  0.0033455941910480 -0.0013837221912951
  0.0015902657914022  0.0003811159618877 -0.0022288003050274
  0.0002139069605494 -0.0030854227196275 -0.0023145267583653
 -0.0034949820503912 -0.0015407014343802 -0.0001076760194900
  0.0004622961704716 -0.0007670177059757 -0.0053792256207412
 -0.0015968615990892 -0.0013352460523642 -0.0037801825420516
  0.0002973993621013 -0.0005941862582159 -0.0035570468018804
  0.0025167306369441  0.0051960634698716 -0.0045331287599703
  0.0018112432425245 -0.0006149893932283 -0.0058812532669671
 -0.0021735575485785  0.0017043067955689  0.0013076388730066
 -0.0000540793172153  0.0007650174670798 -0.0023605238936954
  0.0006589320288723  0.0024545093952804 -0.0015480123796124
 -0.0016917862446550 -0.0012244180516193  0.0014256538115928
 -0.0019593592556970  0.0013649766889209 -0.0042952458839244
 -0.0030357209822598  0.0007560655190803 -0.0009113314672952
  0.0013324041001025 -0.0000214186907318 -0.0015745233102671
  0.0013905539792671  0.0007694846412515 -0.0016957914319346
 -0.0008225436084692  0.0003803639427202 -0.0020786363602467
 -0.0007816060235000 -0.0002018346411367 -0.0023039510917591
  0.0011433213838096  0.0001790920067495 -0.0010493786834238
 -0.0032511308759834  0.0032390857596988 -0.0014878953341450
  0.0006996855438638 -0.0002569367098064 -0.0050123116638386
  0.0007124124642883 -0.0005347690446384 -0.0001622020276514
  0.0004181156831399  0.0005120356127965 -0.0034453371843477
  0.0012148634985519  0.0009373074879283 -0.0023842904555780
  0.0042753141705265 -0.0003444716659331 -0.0019234389401047
  0.0000367815633105 -0.0001333198857668 -0.0023516964173801
 -0.0002917972693607 -0.0014520697621635 -0.0040295231942841
  0.0007656953654599 -0.0015224281494019 -0.0019960380545194
  0.0015382021880635  0.0009499454028809  0.0021557984371594
  0.0020421801226036 -0.0001219205872811 -0.0029257576066552
  0.0006564609997073 -0.0030493008553465 -0.0001558815538417
 -0.0000919514212846  0.0040456813223418  0.0017781215331643
 -0.0004162092959371 -0.0026348735006051  0.0061950680771615
  0.0011376709180586  0.0027425701679104  0.0027482825104514
  0.0006698307433766  0.0029317649697222  0.0066683490490926
  0.0023992366509758  0.0003446388820380 -0.0002421702458464
 -0.0022732596438812 -0.0042753176240574  0.0002548760451469
  0.0016880796761030 -0.0011550092575924 -0.0006800525284946
 -0.0010482822398449 -0.0005683747100686  0.0011845451615387
  0.0067987031246628 -0.0018741514027593  0.0070289346021465
 -0.0012905448931293 -0.0033102837142765  0.0056101623921848
 -0.0004436227442273 -0.0020287394587291  0.0007833234882752
 -0.0013234418887656  0.0005578776673350  0.0029597029486419
 -0.0014656334377111  0.0000038341941037  0.0036517125952405
 -0.0002182604199882 -0.0017369545301770  0.0074851009493663
 -0.0022818219700496  0.0002513165815658  0.0041831072531357
  0.0064651876978771 -0.0024096454040481  0.0009587272671382
 -0.0013524446506448 -0.0008778995046243  0.0047681696116352
  0.0001543011441648 -0.0014350756085957  0.0020690667766401
  0.0026482152372926  0.0012916815552584  0.0057897091414519
 -0.0012034303905241 -0.0048181178170320  0.0007475734425035
 -0.0013917315584078  0.0002387684338548  0.0087188860070852
  0.0042512645609870  0.0018924823728401  0.0033907141922893
  0.0008256763203871  0.0015485947524175  0.0082779280757957
  0.0022603670511753  0.0057755774687490  0.0095777876416992
  0.0036727376897430  0.0013923640514929 -0.0036972049102488
 -0.0074457882576445  0.0022136509762483 -0.0026601701436963
  0.0017839967113454  0.0051493148648985 -0.0005075914340164
 -0.0018034713720245 -0.0015543405384514 -0.0007471050075115
 -0.0014540480003053  0.0031272374281246  0.0122262027833802
 -0.0012389195187773  0.0034505477084225  0.0034297068330613
  0.0081722146806461 -0.0058294191718775  0.0026627228561500
 -0.0041408464350888  0.0030569293413907  0.0092312750389772
  0.0020918008016558 -0.0046312606752391  0.0031708410131943
 -0.0029188147346013 -0.0010096850688117  0.0094383688327892
 -0.0058192157845490  0.0025395569680148  0.0022036878451628
  0.0045669725441922  0.0020671238530719  0.0097663463863019
  0.0008750495096167  0.0038509328462470  0.0105837775984407
  0.0007381910051523  0.0000056552196368  0.0050770306587079
  0.0007684279117327 -0.0023838758537967  0.0034092083594363
  0.0009719234450889  0.0022318566330092  0.0040464731727304
 -0.0004537034565993 -0.0014644279808867  0.0021048289089910
