This file is generated by VASPKIT code  
1.0
       10.1502227783         0.0000000000         0.0000000000
       -5.0750976462         8.7903675242         0.0000000000
        0.0000000000        -0.0000537204        34.9384002685
   Mo    N   Si   Ni    O   Te
   12   48   24   12   24    4
Cartesian
     1.691284386        -0.000005967        21.309221793
    -0.846264393         4.395177719        21.309221793
     6.766395776        -0.000005967        21.309221793
     4.228846996         4.395177719        21.309221793
     1.691939085         2.930437993        21.309221793
    -0.845609738         7.325621756        21.309221793
     6.767050474         2.930437993        21.309221793
     4.229501651         7.325621756        21.309221793
     9.304557367         1.464652863        21.309221793
     6.767008469         5.859836756        21.309221793
     4.229445676         1.464652863        21.309221793
     1.691896777         5.859836756        21.309221793
     0.847614771         1.468786638        20.053463098
    -1.689934128         5.863970531        20.053463098
     5.922726009         1.468786638        20.053463098
     3.385177110         5.863970531        20.053463098
     0.846072242         1.465490426        22.564813888
    -1.691476581         5.860674189        22.564813888
     5.921183782         1.465490426        22.564813888
     3.383634959         5.860674189        22.564813888
     1.691472270        -0.000022963        24.830903474
    -0.846076540         4.395160777        24.830903474
     6.766583357        -0.000022963        24.830903474
     4.229034546         4.395160777        24.830903474
     1.682264936         0.000974417        17.797475676
    -0.855283889         4.396158183        17.797475676
     6.757376174         0.000974417        17.797475676
     4.219827349         4.396158183        17.797475676
    -1.695827854         8.789983550        20.053461015
     0.841720970         4.394799788        20.053461015
     3.379283536         8.789983550        20.053461015
     5.916832359         4.394799788        20.053461015
    -1.692201481         8.790290389        22.564813888
     0.845347494         4.395106365        22.564813888
     3.382909606         8.790290389        22.564813888
     5.920458580         4.395106365        22.564813888
     1.691834571         2.930275133        24.830903474
    -0.845714404         7.325459157        24.830903474
     6.766945960         2.930275133        24.830903474
     4.229396985         7.325459157        24.830903474
     1.697290779         2.937764239        17.797477758
    -0.840257893         7.332947739        17.797477758
     6.772402168         2.937764239        17.797477758
     4.234853496         7.332947739        17.797477758
    -1.689328210         2.926684798        20.053463098
    -4.226877033         7.321868560        20.053463098
     3.385783266         2.926684798        20.053463098
     0.848234443         7.321868560        20.053463098
    -1.691406943         2.929666647        22.564813888
    -4.228955918         7.324850671        22.564813888
     3.383704338         2.929666647        22.564813888
     0.846155364         7.324850671        22.564813888
     9.304472516         1.464816421        24.830903474
     6.766923769         5.860000052        24.830903474
     4.229361127         1.464816421        24.830903474
     1.691812380         5.860000052        24.830903474
     4.233107882         1.456360257        17.797475676
     1.695559134         5.851543888        17.797475676
     9.308219271         1.456360257        17.797475676
     6.770670523         5.851543888        17.797475676
     0.845793562         1.464917278        24.321457468
    -1.691755185         5.860100910        24.321457468
     5.920905103         1.464917278        24.321457468
     3.383356355         5.860100910        24.321457468
     0.849143611         1.471283062        18.298073177
    -1.688405137         5.866466693        18.298073177
     5.924255000         1.471283062        18.298073177
     3.386706253         5.866466693        18.298073177
     3.383524459        -0.000037396        24.321457468
     0.845976089         4.395145580        24.321457468
     8.458635545        -0.000037396        24.321457468
     5.921087176         4.395145580        24.321457468
    -1.698752123         8.790062222        18.298073177
     0.838796549         4.394878722        18.298073177
     3.376359266         8.790062222        18.298073177
     5.913907938         4.394878722        18.298073177
     8.458460139         2.930185535        24.321457468
     5.920911316         7.325369297        24.321457468
     3.383348750         2.930185535        24.321457468
     0.845799927         7.325369297        24.321457468
    -1.687933287         2.924116229        18.298073177
    -4.225481959         7.319299729        18.298073177
     3.387178242         2.924116229        18.298073177
     0.849629570         7.319299729        18.298073177
     0.000000213        -0.000016170        12.209266392
    -2.537548620         4.395167609        12.209266392
     5.075111701        -0.000016170        12.209266392
     2.537562869         4.395167609        12.209266392
     0.000002850        -0.000013606        15.410956680
    -2.537545896         4.395170022        15.410956680
     5.075114034        -0.000013606        15.410956680
     2.537565289         4.395170022        15.410956680
     2.537557683         1.465037599        13.794114882
     0.000008859         5.860221362        13.794114882
     7.612669374         1.465037599        13.794114882
     5.075120551         5.860221362        13.794114882
     1.584808515         2.853860243        12.654580006
    -0.952740308         7.249044005        12.654580006
     6.659920207         2.853860243        12.654580006
     4.122371384         7.249044005        12.654580006
    -0.726360352         4.340686419        12.654566470
    -3.263909175         8.735870181        12.654566470
     4.348751037         4.340686419        12.654566470
     1.811202214         8.735870181        12.654566470
    -0.858410622         1.595750046        12.654572717
    -3.395959370         5.990933677        12.654572717
     4.216700791         1.595750046        12.654572717
     1.679152043         5.990933677        12.654572717
    -1.584979761         2.855161118        14.925033451
    -4.122528736         7.250345142        14.925033451
     3.490131358         2.855161118        14.925033451
     0.952582384         7.250345142        14.925033451
     0.857405161         1.594945572        14.925039699
    -1.680143814         5.990129596        14.925039699
     5.932516701         1.594945572        14.925039699
     3.394967727         5.990129596        14.925039699
     0.727595117         4.340215044        14.925031369
    -1.809953706         8.735398806        14.925031369
     5.802706506         4.340215044        14.925031369
     3.265157683         8.735398806        14.925031369
     0.000014715         2.930103229        13.788347423
    -2.537534108         7.325286991        13.788347423
     5.075125953         2.930103229        13.788347423
     2.537577130         7.325286991        13.788347423
