Generated by VASPKIT code
 1.000000
   10.1502230000000004    0.0000000000000000    0.0000000000000000
   -5.0750975100000000    8.7903671299999999    0.0000000000000000
    0.0000000000000000   -0.0000535100000000   34.9384000000000015
   Mo   N    Si   Ni   O    Te   H 
    12    48    24    12    24     4     1
Selective Dynamics
Direct
    0.1666231108769745    0.0000003437922188    0.6098026049963735    F  F  F    Mo001
    0.1666206918918127    0.5000000033780371    0.6097994472746744    F  F  F    Mo002
    0.6666210786689478    0.0000017712313215    0.6097981654544270    F  F  F    Mo003
    0.6666261942747883    0.5000069082144776    0.6097999683396894    F  F  F    Mo004
    0.3333655528644158    0.3333685221370351    0.6098025737055333    F  F  F    Mo005
    0.3333697665566213    0.8333648316791182    0.6098000533021501    F  F  F    Mo006
    0.8333672690510215    0.3333700289492918    0.6097997038839287    F  F  F    Mo007
    0.8333706722581059    0.8333717384158128    0.6097983094379589    F  F  F    Mo008
    0.9999842903332321    0.1666223924663003    0.6098005251523743    F  F  F    Mo009
    0.9999920064673703    0.6666239275009422    0.6097994075399311    F  F  F    Mo010
    0.4999898362867888    0.1666252779258678    0.6098026538874961    F  F  F    Mo011
    0.4999887586777578    0.6666207685181079    0.6097979824172778    F  F  F    Mo012
    0.1670565285994605    0.1671032167245714    0.5738643238728455    F  F  F     N001
    0.1670538823680393    0.6671023515562233    0.5738592011647620    F  F  F     N002
    0.6670456373450588    0.1671129164296893    0.5738618184810862    F  F  F     N003
    0.6670568691586982    0.6670960551862090    0.5738580496429412    F  F  F     N004
    0.1666962621208215    0.1667060379646945    0.6457466108229304    F  F  F     N005
    0.1666997000364482    0.6667065161515596    0.6457453961495903    F  F  F     N006
    0.6666994577210231    0.1667082422291039    0.6457456640813726    F  F  F     N007
    0.6667018669249632    0.6667125583560464    0.6457442795083141    F  F  F     N008
    0.1666615970294961    0.9999978672404484    0.7105814379598625    F  F  F     N009
    0.1666561642535213    0.4999970274396162    0.7105807252464561    F  F  F     N010
    0.6666605708656462    0.0000022054670398    0.7105801310261386    F  F  F     N011
    0.6666590090345205    0.4999980859131508    0.7105803593502763    F  F  F     N012
    0.1657555518397065    0.0001279330189013    0.5093002903499378    F  F  F     N013
    0.1657552432421865    0.5001187129993976    0.5093025243981871    F  F  F     N014
    0.6657455509274619    0.0001257390856613    0.5093132800761466    F  F  F     N015
    0.6657324844652983    0.5000838444789590    0.5093019030961549    F  F  F     N016
    0.3328898138827738    0.9999580188902579    0.5738643376001832    F  F  F     N017
    0.3328770209327810    0.4999346380607889    0.5738612601036068    F  F  F     N018
    0.8328976318556846    0.9999650846159091    0.5738579320331179    F  F  F     N019
    0.8328895875538774    0.4999538729940139    0.5738596796014324    F  F  F     N020
    0.3332853569073811    0.9999909760682909    0.6457464856555982    F  F  F     N021
    0.3332813261556525    0.4999950158071005    0.6457460047651350    F  F  F     N022
    0.8332775039143621    0.9999931141853950    0.6457449956420473    F  F  F     N023
    0.8332849719333589    0.4999948758020523    0.6457450744204480    F  F  F     N024
    0.3333311021060752    0.3333337808641024    0.7105808857149755    F  F  F     N025
    0.3333356268318158    0.8333365710220817    0.7105800964106492    F  F  F     N026
    0.8333348269196169    0.3333367195927301    0.7105800471598576    F  F  F     N027
    0.8333325032463077    0.8333341634430111    0.7105794889356813    F  F  F     N028
    0.3343669487677688    0.3342407557988260    0.5092991800131061    F  F  F     N029
    0.3343457857109404    0.8342633251154955    0.5093018394215241    F  F  F     N030
    0.8343592149209477    0.3342406674748521    0.5093028934145308    F  F  F     N031
    0.8343741296053536    0.8342506271665785    0.5093131665109978    F  F  F     N032
    0.0000363615637102    0.3329372328791587    0.5738598258573455    F  F  F     N033
    0.0000564187913289    0.8329447693602703    0.5738614799624998    F  F  F     N034
    0.5000328856394999    0.3329341803028288    0.5738642134756100    F  F  F     N035
    0.5000286805249414    0.8329351322048644    0.5738579637973498    F  F  F     N036
    0.9999969894095828    0.3332934209236826    0.6457458806755536    F  F  F     N037
    0.9999967512102098    0.8332898268656651    0.6457455764064647    F  F  F     N038
    0.4999998513274954    0.3332968955777533    0.6457464474201499    F  F  F     N039
    0.5000008996637695    0.8332891741595512    0.6457445676728163    F  F  F     N040
    0.9999974906974549    0.1666594691636646    0.7105812194086886    F  F  F     N041
    0.9999972511881442    0.6666611002273767    0.7105798385930154    F  F  F     N042
    0.4999973789959654    0.1666637862279298    0.7105808019369686    F  F  F     N043
    0.4999940267753866    0.6666604505413072    0.7105793932345043    F  F  F     N044
    0.4998707878835454    0.1656286569619341    0.5093000633305288    F  F  F     N045
    0.4998697162748322    0.6656211552964180    0.5093128056909517    F  F  F     N046
    0.9999122242931598    0.1656517713580533    0.5093015897757188    F  F  F     N047
    0.9998756492363240    0.6656371685233091    0.5093022358623895    F  F  F     N048
    0.1666665478745489    0.1666675375642143    0.6960276621539701    F  F  F    Si001
    0.1666656655402161    0.6666669150214276    0.6960277395965255    F  F  F    Si002
    0.6666670190170186    0.1666675383406970    0.6960270927803097    F  F  F    Si003
    0.6666670213870792    0.6666674857477425    0.6960275959100566    F  F  F    Si004
    0.1673206594705903    0.1673493352755802    0.5236221226986988    F  F  F    Si005
    0.1673087956064960    0.6673375245061738    0.5236115298832273    F  F  F    Si006
    0.6673179494970525    0.1673398939372209    0.5236147706754603    F  F  F    Si007
    0.6673175590429362    0.6673349120659281    0.5236077278391773    F  F  F    Si008
    0.3333289383055466    0.0000000448424665    0.6960270154515437    F  F  F    Si009
    0.3333308535431554    0.4999987475528903    0.6960277481023310    F  F  F    Si010
    0.8333291587119774    0.9999982995028959    0.6960277098252289    F  F  F    Si011
    0.8333317910595873    0.4999993443337252    0.6960277242559394    F  F  F    Si012
    0.3326472118163704    0.9999743630743302    0.5236219971273963    F  F  F    Si013
    0.3326547407571453    0.4999785894412416    0.5236145301363093    F  F  F    Si014
    0.8326654044417594    0.9999865811412277    0.5236073137040193    F  F  F    Si015
    0.8326613289305467    0.4999752002743317    0.5236121078887825    F  F  F    Si016
    0.9999990480569270    0.3333316801693613    0.6960273945327241    F  F  F    Si017
    0.9999979326239437    0.8333289269033486    0.6960277576776187    F  F  F    Si018
    0.4999993790619077    0.3333327168013346    0.6960276986056164    F  F  F    Si019
    0.4999975758898459    0.8333308604777084    0.6960279472888410    F  F  F    Si020
    0.0000229001418712    0.3326853825615100    0.5236124468731681    F  F  F    Si021
    0.0000182158083562    0.8326799413974647    0.5236144361385952    F  F  F    Si022
    0.5000223686536232    0.3326753574675617    0.5236219811827032    F  F  F    Si023
    0.5000110993757382    0.8326773436920876    0.5236077754521781    F  F  F    Si024
    0.9995913384773357    0.9998728414795990    0.3501911623876046    F  F  F    Ni001
    0.9999611033039922    0.4999862874826934    0.3502737757153534    F  F  F    Ni002
    0.5001187072222362    0.9996974681504862    0.3502135463181489    F  F  F    Ni003
    0.5002782205232633    0.5004238750545021    0.3502132426608848    F  F  F    Ni004
    0.0003483210079544    0.0001418429834157    0.4418868978500261    F  F  F    Ni005
    0.9999937726106185    0.4999919350397466    0.4417976557009043    F  F  F    Ni006
    0.4998427923453432    0.0001971086533039    0.4418890343999621    F  F  F    Ni007
    0.4997848264826737    0.4996470098981585    0.4418897995096358    F  F  F    Ni008
    0.3333176686197719    0.1666588153142095    0.3953891011636221    F  F  F    Ni009
    0.3332368813758808    0.6666721170523705    0.3957806265934122    F  F  F    Ni010
    0.8334352808113425    0.1667513211999749    0.3957906696669152    F  F  F    Ni011
    0.8333124325284660    0.6665496657551346    0.3958011206487076    F  F  F    Ni012
    0.3185151569521528    0.3248897654290576    0.3628304232072919    F  F  F     O001
    0.3185639299234178    0.8244103344435079    0.3629820700563900    F  F  F     O002
    0.8186216986863242    0.3245190807401040    0.3630089789648415    F  F  F     O003
    0.8185411899400863    0.8248911353839982    0.3634082290833839    F  F  F     O004
    0.1754379061310135    0.4940967839211945    0.3629983951998740    F  F  F     O005
    0.1750985860944409    0.9936218372755674    0.3628313234159719    F  F  F     O006
    0.6755472263759518    0.4941498903153465    0.3630015083198783    F  F  F     O007
    0.6751267750763617    0.9936144505188560    0.3633891088910375    F  F  F     O008
    0.0058192911484042    0.1813955645333770    0.3629830120610621    F  F  F     O009
    0.0058622269171067    0.6813393279877588    0.3630098378087271    F  F  F     O010
    0.5063609927684664    0.1814582649139625    0.3628392144537705    F  F  F     O011
    0.5064147604175011    0.6815511492525680    0.3633727556748228    F  F  F     O012
    0.0064594281421671    0.3247871760630556    0.4279583109218585    F  F  F     O013
    0.0064952974583797    0.8248355595312478    0.4279666168187737    F  F  F     O014
    0.5060228412699466    0.3245804750274794    0.4277887115103015    F  F  F     O015
    0.5059493805221192    0.8245196761027087    0.4282919473078654    F  F  F     O016
    0.1753821176832582    0.1814349026028200    0.4277772898185779    F  F  F     O017
    0.1752010223928341    0.6816526556848560    0.4279545371531254    F  F  F     O018
    0.6751554725674211    0.1816341481655225    0.4279659570818782    F  F  F     O019
    0.6754615927374096    0.6814445479087039    0.4283014375342657    F  F  F     O020
    0.3183563806728454    0.4935141771371919    0.4279535874797116    F  F  F     O021
    0.3185511334715073    0.9939491628890239    0.4277821048517118    F  F  F     O022
    0.8183075365299779    0.4935132821646832    0.4279696201487240    F  F  F     O023
    0.8185479356707612    0.9940267289393090    0.4283000448218149    F  F  F     O024
    0.1666746357093531    0.3333389403775675    0.3953502605164179    F  F  F    Te001
    0.1666456437622068    0.8333361816969275    0.3953559973352385    F  F  F    Te002
    0.6666398379340713    0.3332892600352412    0.3953651756021302    F  F  F    Te003
    0.6666619656579426    0.8333343526357401    0.3959296384969148    F  F  F    Te004
    0.6721136186032257    0.8359564062415048    0.2975484659457070    T  T  T     H001
