cif2pos.py
1.0
    10.15020000     0.00000000     0.00000000
    -5.07508466     8.79033991     0.00000000
     0.00000000    -0.00007041    34.93840000
  Mo  Si  N  Ni  Te  O  H
  12  23  48  12  4  24  1
Direct
     0.16536000     0.00195000     0.60795000
     0.16731000     0.50391000     0.60836000
     0.66731000     0.00455000     0.60827000
     0.66467000     0.50188000     0.60790000
     0.33494000     0.33699000     0.60795000
     0.33250000     0.83719000     0.60820000
     0.83451000     0.33660000     0.60797000
     0.83244000     0.83630000     0.60837000
     0.00069000     0.16894000     0.60827000
     0.99909000     0.66811000     0.60822000
     0.49988000     0.17195000     0.60757000
     0.49990000     0.67156000     0.60821000
     0.16671000     0.16953000     0.69428000
     0.16639000     0.66957000     0.69442000
     0.66654000     0.16972000     0.69419000
     0.66643000     0.66962000     0.69437000
     0.17817000     0.17939000     0.52077000
     0.16555000     0.66881000     0.52262000
     0.66286000     0.16942000     0.52104000
     0.66833000     0.66653000     0.52121000
     0.33311000     0.00298000     0.69415000
     0.33327000     0.50306000     0.69441000
     0.83332000     0.00304000     0.69443000
     0.83299000     0.50264000     0.69427000
     0.33779000     0.00686000     0.52076000
     0.33157000     0.49821000     0.52144000
     0.83461000     0.00349000     0.52280000
     0.82150000     0.50127000     0.52072000
     0.00008000     0.33621000     0.69433000
     0.99963000     0.83594000     0.69431000
     0.49979000     0.33620000     0.69513000
     0.49984000     0.83654000     0.69440000
     0.99953000     0.33412000     0.52215000
     0.00066000     0.83432000     0.52217000
     0.49991000     0.83437000     0.52232000
     0.16738000     0.16965000     0.57232000
     0.16643000     0.66972000     0.57306000
     0.66883000     0.17188000     0.57217000
     0.66725000     0.67224000     0.57257000
     0.16666000     0.16894000     0.64394000
     0.16637000     0.66990000     0.64410000
     0.66720000     0.17077000     0.64382000
     0.66613000     0.67036000     0.64406000
     0.16641000     0.00265000     0.70882000
     0.16651000     0.50302000     0.70896000
     0.66670000     0.00318000     0.70888000
     0.66697000     0.50339000     0.70925000
     0.16500000     0.00257000     0.50758000
     0.16172000     0.50338000     0.50785000
     0.66899000     0.00052000     0.50882000
     0.67607000     0.51749000     0.50393000
     0.33137000     0.00310000     0.57206000
     0.33244000     0.50495000     0.57268000
     0.83339000     0.00314000     0.57317000
     0.83213000     0.50204000     0.57226000
     0.33261000     0.00343000     0.64379000
     0.33362000     0.50419000     0.64409000
     0.83337000     0.00328000     0.64413000
     0.83307000     0.50222000     0.64392000
     0.33268000     0.33626000     0.70926000
     0.33299000     0.83633000     0.70887000
     0.83327000     0.33609000     0.70883000
     0.83315000     0.83631000     0.70895000
     0.32459000     0.34135000     0.50451000
     0.33125000     0.83155000     0.50860000
     0.83545000     0.33806000     0.50735000
     0.83854000     0.84174000     0.50804000
     0.00120000     0.33546000     0.57261000
     0.99870000     0.83400000     0.57260000
     0.49973000     0.33754000     0.57681000
     0.49992000     0.83757000     0.57282000
     0.00089000     0.33620000     0.64407000
     0.99891000     0.83511000     0.64405000
     0.49987000     0.33646000     0.64514000
     0.49986000     0.83805000     0.64414000
     0.00008000     0.16954000     0.70891000
     0.99961000     0.66927000     0.70890000
     0.49979000     0.16892000     0.70915000
     0.49988000     0.66986000     0.70896000
     0.50071000     0.14258000     0.50178000
     0.49975000     0.66842000     0.50854000
     0.99932000     0.16685000     0.50831000
     0.00032000     0.66693000     0.50810000
     0.99718000     0.99514000     0.35512000
     0.01028000     0.50106000     0.35285000
     0.50233000     0.98646000     0.35405000
     0.49404000     0.49827000     0.35504000
     0.99947000     0.99248000     0.45140000
     0.99234000     0.49403000     0.45064000
     0.50608000     0.00549000     0.45082000
     0.49834000     0.46781000     0.45866000
     0.33309000     0.15805000     0.39673000
     0.33467000     0.66177000     0.39912000
     0.83729000     0.16367000     0.39756000
     0.82932000     0.65967000     0.39769000
     0.17022000     0.32921000     0.40091000
     0.16353000     0.82548000     0.39825000
     0.66894000     0.32862000     0.39388000
     0.66667000     0.82527000     0.40086000
     0.31647000     0.30882000     0.36681000
     0.31510000     0.81761000     0.36526000
     0.82482000     0.32227000     0.36238000
     0.81719000     0.82003000     0.36640000
     0.18144000     0.48527000     0.36593000
     0.18063000     0.99889000     0.36666000
     0.67180000     0.48807000     0.36275000
     0.68677000     0.99742000     0.36757000
     0.99961000     0.17643000     0.36822000
     0.00656000     0.68067000     0.36407000
     0.50707000     0.17170000     0.36256000
     0.50839000     0.68497000     0.36518000
     0.99770000     0.31841000     0.42891000
     0.00403000     0.82012000     0.42934000
     0.49862000     0.30557000     0.42554000
     0.50482000     0.82706000     0.42971000
     0.17260000     0.16969000     0.42999000
     0.16973000     0.67211000     0.42967000
     0.68770000     0.17682000     0.42538000
     0.66471000     0.66405000     0.42986000
     0.32745000     0.48755000     0.43032000
     0.32089000     0.99740000     0.42716000
     0.81553000     0.48507000     0.42732000
     0.82242000     0.99072000     0.43091000
     0.50036000     0.34121000     0.52209000
