Converted by xsd2pos.py                 
   1.00000000000000     
    10.1502230000000004    0.0000000000000000    0.0000000000000000
    -5.0750975100000000    8.7903671299999999    0.0000000000000000
     0.0000000000000000   -0.0000535100000000   34.9384000000000015
   Mo   N    Si   Ni   O    Te   H 
    12    48    24    12    24     4     1
Direct
  0.1668159293874212  0.0000811316171340  0.6097561226926959
  0.1668106185104615  0.5000859494524610  0.6097526401327733
  0.6668066045947872  0.0000788528265148  0.6097584487815189
  0.6668084818830170  0.5001232718535200  0.6097541236500361
  0.3335279347763416  0.3334540962683699  0.6097600923824393
  0.3335705316654431  0.8334623981072907  0.6097570982615875
  0.8335471557871866  0.3334479141140081  0.6097688019250037
  0.8335390715967116  0.8334339800690562  0.6097410525194918
  0.0001490311184046  0.1666840832361922  0.6097628715397186
  0.0001966127372295  0.6667193152446717  0.6097596138954120
  0.5001767192660972  0.1667126438803750  0.6097650315253588
  0.5001803843210927  0.6666994373217461  0.6097348961264097
  0.1672033415451163  0.1671574213566236  0.5738180813195050
  0.1672404317319126  0.6671886916561709  0.5738064476859952
  0.6672250197237009  0.1671969761698529  0.5738111421914429
  0.6672391337806238  0.6671677038311670  0.5737668739276496
  0.1668771765513000  0.1667873163577392  0.6457122546079520
  0.1669111639891778  0.6668051457645056  0.6457090075140003
  0.6668852320435253  0.1668014721212809  0.6457141407243854
  0.6668848473960940  0.6668036357960130  0.6457018527910888
  0.1669028079433693  0.0001271248776350  0.7105536879498433
  0.1669111747097612  0.5001348195159498  0.7105548295909790
  0.6669022705449287  0.0001348622463724  0.7105575530716208
  0.6668795973418040  0.5001193850974184  0.7105560795151421
  0.1659867433010633  0.0001748658723141  0.5092429779557962
  0.1658059417402119  0.5001462075673740  0.5092285181154282
  0.6659224158511976  0.0001912732499769  0.5092284611817420
  0.6659133642625458  0.5000310895403320  0.5092409064302243
  0.3331222650320334  0.0000617868794507  0.5738101746839798
  0.3330174686004889  0.4999799712718363  0.5737886241202602
  0.8330735125996727  0.0000585817700224  0.5738011251299064
  0.8330863874019224  0.5000132325424063  0.5738272149813659
  0.3334802490556262  0.0000835404733995  0.6457152107296217
  0.3334857955085194  0.5001027415827299  0.6457065329765463
  0.8334659228423262  0.0000605025901748  0.6457083994661882
  0.8334665484720022  0.5000925169215178  0.6457151007361044
  0.3335676485729963  0.3334562625522043  0.7105572861276419
  0.3335911397550980  0.8334641124033759  0.7105537944764334
  0.8335685418713836  0.3334656680896104  0.7105590894396903
  0.8335629553223394  0.8334434173580221  0.7105528829617088
  0.3344732721824110  0.3341798649465031  0.5092450786870196
  0.3344835331121724  0.8343297136993304  0.5092215339555316
  0.8344797751365894  0.3342824346424939  0.5092154687615132
  0.8345948694510670  0.8343705896500828  0.5092449762046950
  0.0001861226556569  0.3330069875389298  0.5738150350365775
  0.0002595648079559  0.8330040801621429  0.5738021584802518
  0.5001984389138791  0.3330103539013640  0.5738290328553555
  0.5002098772456275  0.8330583187313305  0.5738059194396026
  0.0001876122074071  0.3333794304602594  0.6457134848442725
  0.0001893804778031  0.8333825307638151  0.6457066460869786
  0.5001866466835850  0.3334030600570856  0.6457148315693991
  0.5001933338545774  0.8333656897317175  0.6457066829730663
  0.0002336512178083  0.1667900955720786  0.7105571542522710
  0.0002357486010157  0.6668006733795292  0.7105560090478674
  0.5002366467481847  0.1668038176564985  0.7105587172988439
  0.5002353171881314  0.6667801460227768  0.7105547354586237
  0.5000759085023889  0.1657769365750683  0.5092194696949152
  0.4999435386298788  0.6656973337111141  0.5092564160050198
  0.0000878377610636  0.1657291498388239  0.5092305490223841
 -0.0000225882238523  0.6656113999894209  0.5092277933508934
  0.1669049022114084  0.1668017899268188  0.6960054974401075
  0.1669271411644829  0.6668041199508130  0.6960045654503565
  0.6669050305451123  0.1668077243825190  0.6960046882173478
  0.6669171909488023  0.6668108270012887  0.6960016629392575
  0.1674310534840173  0.1673361173380209  0.5235634118664690
  0.1674514798220019  0.6673943561383110  0.5235594459685473
  0.6674409166475603  0.1673645400204107  0.5235669830573298
  0.6674272672329780  0.6673730260785234  0.5234641101894478
  0.3335493104599501  0.0001159645131028  0.6960060087296049
  0.3335697967687665  0.5001425110403712  0.6960008891189157
  0.8335712059513540  0.0001142537587183  0.6960006854204798
  0.8335631515134596  0.5001304410937282  0.6960003299677674
  0.3328746528155069  0.0000911065263809  0.5235569964432149
  0.3327960801721196  0.4999873007074199  0.5235169475319986
  0.8328740417271696  0.0000434320055704  0.5235423700410761
  0.8327980185752863  0.5000031704761615  0.5235943609610169
  0.0002513473992925  0.3334652833374550  0.6960046100764223
  0.0002053317415068  0.8334417635824372  0.6959982135762318
  0.5002493691113903  0.3334629644227440  0.6960031520512967
  0.5002552878090357  0.8334642549503452  0.6959972402118182
  0.0001441344017726  0.3327086785024944  0.5235698063806299
  0.0002008639084798  0.8327686121532895  0.5235353912316538
  0.5001536700704956  0.3327561062692299  0.5235872658166861
  0.5001745932883273  0.8327546177005952  0.5235425673331193
 -0.0002656181042752 -0.0003476459047319  0.3501401505466980
 -0.0004049363760146  0.4999575068876571  0.3499861320100031
  0.5000639070218914 -0.0011884839451243  0.3497883023803360
  0.4999732610554186  0.4875387313381468  0.3479039858094892
 -0.0010651739830046 -0.0004440149322646  0.4414018970030790
  0.0003496937078688  0.4999835642457033  0.4417194704004644
  0.4999362107621537 -0.0014083567883955  0.4414855723978846
  0.4998074027006879  0.5000985663175754  0.4412155044777966
  0.3326984034256046  0.1661581080267334  0.3947396061751772
  0.3335945770442459  0.6653281768043718  0.3954667631720457
  0.8317980382851864  0.1643457710151897  0.3950941348968604
  0.8343833654760900  0.6676876363256077  0.3962931829718964
  0.3148171832334025  0.3220999365522001  0.3623372560972175
  0.3188162683677799  0.8234928159002320  0.3626651917603982
  0.8179310854871589  0.3234596604212200  0.3623467546238075
  0.8195519731535569  0.8238906654740575  0.3632413571885707
  0.1743228167176846  0.4937177202454734  0.3629754318344244
  0.1752850882236048  0.9927105423208822  0.3624638260040218
  0.6807455709110103  0.4998876855107075  0.3632143152666714
  0.6737310888599786  0.9901528654231334  0.3624996125901043
  0.0053115373573723  0.1809748372470487  0.3628235297837286
  0.0056590112757076  0.6809598191031845  0.3630896015736426
  0.5062491683199918  0.1814557973021546  0.3620745206811236
  0.5059913114322719  0.6720051886081084  0.3644079676236240
  0.0040756036818792  0.3232364247591749  0.4277784537940575
  0.0080402246411102  0.8252743133544586  0.4280555152597824
  0.5058950356966312  0.3249932666266951  0.4267896947084642
  0.5056231724126353  0.8231409463100209  0.4279118733290149
  0.1748836568675985  0.1805766201814805  0.4273664327518220
  0.1756496266696459  0.6813712115687559  0.4277671060509446
  0.6742410865898869  0.1804487602066901  0.4272699561015879
  0.6771379858518601  0.6819150980877990  0.4288861735230208
  0.3165924561001282  0.4921602951599706  0.4283418525484111
  0.3197684488127838  0.9944682406190563  0.4272694307212389
  0.8182447106664432  0.4925321382847344  0.4275614998095612
  0.8172085892145221  0.9924789612957068  0.4275203147924270
  0.1653044311886698  0.3333505930323342  0.3954350226123804
  0.1673739091604939  0.8330899789639707  0.3951589009961993
  0.6669249443871296  0.3327344826862709  0.3948761174825319
  0.6650715988787776  0.8295669446848163  0.3952530440467960
  0.4978574967658768  0.3691516023252638  0.3250647873220608
 
  0.00000000E+00  0.00000000E+00  0.00000000E+00
  0.00000000E+00  0.00000000E+00  0.00000000E+00
  0.00000000E+00  0.00000000E+00  0.00000000E+00
  0.00000000E+00  0.00000000E+00  0.00000000E+00
  0.00000000E+00  0.00000000E+00  0.00000000E+00
  0.00000000E+00  0.00000000E+00  0.00000000E+00
  0.00000000E+00  0.00000000E+00  0.00000000E+00
  0.00000000E+00  0.00000000E+00  0.00000000E+00
  0.00000000E+00  0.00000000E+00  0.00000000E+00
  0.00000000E+00  0.00000000E+00  0.00000000E+00
  0.00000000E+00  0.00000000E+00  0.00000000E+00
  0.00000000E+00  0.00000000E+00  0.00000000E+00
  0.00000000E+00  0.00000000E+00  0.00000000E+00
  0.00000000E+00  0.00000000E+00  0.00000000E+00
  0.00000000E+00  0.00000000E+00  0.00000000E+00
  0.00000000E+00  0.00000000E+00  0.00000000E+00
  0.00000000E+00  0.00000000E+00  0.00000000E+00
  0.00000000E+00  0.00000000E+00  0.00000000E+00
  0.00000000E+00  0.00000000E+00  0.00000000E+00
  0.00000000E+00  0.00000000E+00  0.00000000E+00
  0.00000000E+00  0.00000000E+00  0.00000000E+00
  0.00000000E+00  0.00000000E+00  0.00000000E+00
  0.00000000E+00  0.00000000E+00  0.00000000E+00
  0.00000000E+00  0.00000000E+00  0.00000000E+00
  0.00000000E+00  0.00000000E+00  0.00000000E+00
  0.00000000E+00  0.00000000E+00  0.00000000E+00
  0.00000000E+00  0.00000000E+00  0.00000000E+00
  0.00000000E+00  0.00000000E+00  0.00000000E+00
  0.00000000E+00  0.00000000E+00  0.00000000E+00
  0.00000000E+00  0.00000000E+00  0.00000000E+00
  0.00000000E+00  0.00000000E+00  0.00000000E+00
  0.00000000E+00  0.00000000E+00  0.00000000E+00
  0.00000000E+00  0.00000000E+00  0.00000000E+00
  0.00000000E+00  0.00000000E+00  0.00000000E+00
  0.00000000E+00  0.00000000E+00  0.00000000E+00
  0.00000000E+00  0.00000000E+00  0.00000000E+00
  0.00000000E+00  0.00000000E+00  0.00000000E+00
  0.00000000E+00  0.00000000E+00  0.00000000E+00
  0.00000000E+00  0.00000000E+00  0.00000000E+00
  0.00000000E+00  0.00000000E+00  0.00000000E+00
  0.00000000E+00  0.00000000E+00  0.00000000E+00
  0.00000000E+00  0.00000000E+00  0.00000000E+00
  0.00000000E+00  0.00000000E+00  0.00000000E+00
  0.00000000E+00  0.00000000E+00  0.00000000E+00
  0.00000000E+00  0.00000000E+00  0.00000000E+00
  0.00000000E+00  0.00000000E+00  0.00000000E+00
  0.00000000E+00  0.00000000E+00  0.00000000E+00
  0.00000000E+00  0.00000000E+00  0.00000000E+00
  0.00000000E+00  0.00000000E+00  0.00000000E+00
  0.00000000E+00  0.00000000E+00  0.00000000E+00
  0.00000000E+00  0.00000000E+00  0.00000000E+00
  0.00000000E+00  0.00000000E+00  0.00000000E+00
  0.00000000E+00  0.00000000E+00  0.00000000E+00
  0.00000000E+00  0.00000000E+00  0.00000000E+00
  0.00000000E+00  0.00000000E+00  0.00000000E+00
  0.00000000E+00  0.00000000E+00  0.00000000E+00
  0.00000000E+00  0.00000000E+00  0.00000000E+00
  0.00000000E+00  0.00000000E+00  0.00000000E+00
  0.00000000E+00  0.00000000E+00  0.00000000E+00
  0.00000000E+00  0.00000000E+00  0.00000000E+00
  0.00000000E+00  0.00000000E+00  0.00000000E+00
  0.00000000E+00  0.00000000E+00  0.00000000E+00
  0.00000000E+00  0.00000000E+00  0.00000000E+00
  0.00000000E+00  0.00000000E+00  0.00000000E+00
  0.00000000E+00  0.00000000E+00  0.00000000E+00
  0.00000000E+00  0.00000000E+00  0.00000000E+00
  0.00000000E+00  0.00000000E+00  0.00000000E+00
  0.00000000E+00  0.00000000E+00  0.00000000E+00
  0.00000000E+00  0.00000000E+00  0.00000000E+00
  0.00000000E+00  0.00000000E+00  0.00000000E+00
  0.00000000E+00  0.00000000E+00  0.00000000E+00
  0.00000000E+00  0.00000000E+00  0.00000000E+00
  0.00000000E+00  0.00000000E+00  0.00000000E+00
  0.00000000E+00  0.00000000E+00  0.00000000E+00
  0.00000000E+00  0.00000000E+00  0.00000000E+00
  0.00000000E+00  0.00000000E+00  0.00000000E+00
  0.00000000E+00  0.00000000E+00  0.00000000E+00
  0.00000000E+00  0.00000000E+00  0.00000000E+00
  0.00000000E+00  0.00000000E+00  0.00000000E+00
  0.00000000E+00  0.00000000E+00  0.00000000E+00
  0.00000000E+00  0.00000000E+00  0.00000000E+00
  0.00000000E+00  0.00000000E+00  0.00000000E+00
  0.00000000E+00  0.00000000E+00  0.00000000E+00
  0.00000000E+00  0.00000000E+00  0.00000000E+00
  0.00000000E+00  0.00000000E+00  0.00000000E+00
  0.00000000E+00  0.00000000E+00  0.00000000E+00
  0.00000000E+00  0.00000000E+00  0.00000000E+00
  0.00000000E+00  0.00000000E+00  0.00000000E+00
  0.00000000E+00  0.00000000E+00  0.00000000E+00
  0.00000000E+00  0.00000000E+00  0.00000000E+00
  0.00000000E+00  0.00000000E+00  0.00000000E+00
  0.00000000E+00  0.00000000E+00  0.00000000E+00
  0.00000000E+00  0.00000000E+00  0.00000000E+00
  0.00000000E+00  0.00000000E+00  0.00000000E+00
  0.00000000E+00  0.00000000E+00  0.00000000E+00
  0.00000000E+00  0.00000000E+00  0.00000000E+00
  0.00000000E+00  0.00000000E+00  0.00000000E+00
  0.00000000E+00  0.00000000E+00  0.00000000E+00
  0.00000000E+00  0.00000000E+00  0.00000000E+00
  0.00000000E+00  0.00000000E+00  0.00000000E+00
  0.00000000E+00  0.00000000E+00  0.00000000E+00
  0.00000000E+00  0.00000000E+00  0.00000000E+00
  0.00000000E+00  0.00000000E+00  0.00000000E+00
  0.00000000E+00  0.00000000E+00  0.00000000E+00
  0.00000000E+00  0.00000000E+00  0.00000000E+00
  0.00000000E+00  0.00000000E+00  0.00000000E+00
  0.00000000E+00  0.00000000E+00  0.00000000E+00
  0.00000000E+00  0.00000000E+00  0.00000000E+00
  0.00000000E+00  0.00000000E+00  0.00000000E+00
  0.00000000E+00  0.00000000E+00  0.00000000E+00
  0.00000000E+00  0.00000000E+00  0.00000000E+00
  0.00000000E+00  0.00000000E+00  0.00000000E+00
  0.00000000E+00  0.00000000E+00  0.00000000E+00
  0.00000000E+00  0.00000000E+00  0.00000000E+00
  0.00000000E+00  0.00000000E+00  0.00000000E+00
  0.00000000E+00  0.00000000E+00  0.00000000E+00
  0.00000000E+00  0.00000000E+00  0.00000000E+00
  0.00000000E+00  0.00000000E+00  0.00000000E+00
  0.00000000E+00  0.00000000E+00  0.00000000E+00
  0.00000000E+00  0.00000000E+00  0.00000000E+00
  0.00000000E+00  0.00000000E+00  0.00000000E+00
  0.00000000E+00  0.00000000E+00  0.00000000E+00
  0.00000000E+00  0.00000000E+00  0.00000000E+00
  0.00000000E+00  0.00000000E+00  0.00000000E+00
  0.00000000E+00  0.00000000E+00  0.00000000E+00
