cif2pos.py                              
   1.00000000000000     
    10.1501999999999999    0.0000000000000000    0.0000000000000000
    -5.0750846599999999    8.7903399100000001    0.0000000000000000
     0.0000000000000000   -0.0000704100000000   34.9384000000000015
   Mo   Si   N    Ni   Te   O 
    12    23    48    12     4    24
Direct
  0.1653573069088213  0.0019461582112965  0.6079455907817944
  0.1673149505050337  0.5039065982464253  0.6083603809836678
  0.6673086169185094  0.0045477849955380  0.6082679801047766
  0.6646710801013521  0.5018776678661589  0.6079010130750178
  0.3349355369685808  0.3369898681090439  0.6079483696833198
  0.3325002497760396  0.8371894999809634  0.6081990582272601
  0.8345123999454419  0.3366028807484212  0.6079655749580537
  0.8324359178992964  0.8362962899722652  0.6083694067936029
  0.0006871435087600  0.1689374663196102  0.6082720573168535
 -0.0009117648005703  0.6681103927167217  0.6082214682985460
  0.4998803972168078  0.1719533413984425  0.6075720013394547
  0.4999017778701006  0.6715641184476083  0.6082142451618457
  0.1667123344375899  0.1695324275212042  0.6942816804008656
  0.1663896824068314  0.6695701788313176  0.6944212599130627
  0.6665416598187131  0.1697246853041557  0.6941905872505945
  0.6664317485958570  0.6696158109428945  0.6943720548326507
  0.1781678108876596  0.1793857009475443  0.5207697205658547
  0.1655543644475579  0.6688135456811506  0.5226253270817399
  0.6628557296279524  0.1694188513817613  0.5210387744437169
  0.6683274163641042  0.6665274015390870  0.5212055848168042
  0.3331087105098598  0.0029789060446261  0.6941527865032752
  0.3332739523256761  0.5030636837813730  0.6944081821099851
  0.8333198294670487  0.0030390205279841  0.6944321861186696
  0.8329945711242969  0.5026362205763597  0.6942729470133553
  0.3377952662988050  0.0068627326933458  0.5207652346873417
  0.3315653628946351  0.4982121080754560  0.5214445133088748
  0.8346067266891019  0.0034885271019806  0.5227978904772733
  0.8214994156321230  0.5012754846843026  0.5207199186399469
  0.0000821905761014  0.3362091784093589  0.6943270240688821
 -0.0003658609429876  0.8359425931369161  0.6943085512127883
  0.4997908456543944  0.3361996079649547  0.6951267973070800
  0.4998450909078100  0.8365436346123087  0.6943966162928055
 -0.0004689635979232  0.3341220640202015  0.5221528146989806
  0.0006594610488967  0.8343225825578058  0.5221726368216736
  0.4999146615942948  0.8343738447680121  0.5223227744652191
  0.1673840304813576  0.1696474116288243  0.5723169457976985
  0.1664339879700980  0.6697226366611782  0.5730609135845627
  0.6688255785134084  0.1718824482064655  0.5721677844328641
  0.6672516768736440  0.6722348913577366  0.5725728391666703
  0.1666596104064695  0.1689440638085864  0.6439425885836678
  0.1663669859349667  0.6698976234050245  0.6440958001334465
  0.6672012912125678  0.1707673026066577  0.6438207482883764
  0.6661336764549809  0.6703607509198622  0.6440625583706028
  0.1664149710505507  0.0026531864282847  0.7088188610821358
  0.1665123157044146  0.5030212623610228  0.7089601959700167
  0.6667026887479393  0.0031822146483664  0.7088841381586412
  0.6669712866640051  0.5033857121023368  0.7092524161053021
  0.1650007873202996  0.0025657157314621  0.5075813523078906
  0.1617236396838215  0.5033833849148477  0.5078503954969010
  0.6689920259397947  0.0005182364620880  0.5088209462056573
  0.6760705939694918  0.5174930570558963  0.5039309200601240
  0.3313723557480939  0.0031043314966054  0.5720585570560935
  0.3324372347764600  0.5049511743609817  0.5726838943710235
  0.8333947245421416  0.0031358439035931  0.5731723575225784
  0.8321269454754582  0.5020423385207838  0.5722567203442714
  0.3326104366878682  0.0034286432205534  0.6437878534408392
  0.3336222486854027  0.5041876172664360  0.6440905158520290
  0.8333686609090045  0.0032806029555629  0.6441302011377188
  0.8330701153314121  0.5022236767418677  0.6439225321115789
  0.3326820826086769  0.3362612688575974  0.7092622472928952
  0.3329909389834544  0.8363264454305716  0.7088693548807684
  0.8332678469568542  0.3360910235884885  0.7088309532595520
  0.8331529936524554  0.8363065269495659  0.7089527293822689
  0.3245942012088320  0.3413475737587416  0.5045086232548999
  0.3312491080260927  0.8315474474053950  0.5086007826648974
  0.8354541324753948  0.3380636244445260  0.5073500320920868
  0.8385367246921590  0.8417351594743413  0.5080389742879643
  0.0011986061280797  0.3354608943677120  0.5726092866269903
 -0.0012971114671875  0.8339983001638033  0.5726021816817611
  0.4997350965474764  0.3375444301342713  0.5768059724811447
  0.4999167332262064  0.8375680231089814  0.5728172515725729
  0.0008920101679377  0.3362021115081436  0.6440656212804197
 -0.0010943434324954  0.8351112281196184  0.6440536344955861
  0.4998681572800319  0.3364566139993721  0.6451430340540314
  0.4998652907514386  0.8380496781189813  0.6441385190408133
  0.0000764364767370  0.1695363635109164  0.7089104167998974
 -0.0003877324994465  0.6692683898182080  0.7089042417748652
  0.4997946116819776  0.1689158251510793  0.7091514158178718
  0.4998779547435037  0.6698544921292124  0.7089599138073754
  0.5007151297121980  0.1425842682022956  0.5017808799910528
  0.4997482915160145  0.6684161307560014  0.5085403081380799
  0.9993207312715920  0.1668458868437968  0.5083062274811843
  0.0003229836153318  0.6669284123650093  0.5081054673726063
 -0.0028176007554435 -0.0048560980814156  0.3551199387957673
  0.0102794173991205  0.5010588072308051  0.3528506156060535
  0.5023327008716393 -0.0135426340619398  0.3540476296817231
  0.4940407911634660  0.4982737012137233  0.3550407783428173
 -0.0005341268459875 -0.0075172835879797  0.4513974368815217
 -0.0076650304091108  0.4940302114173210  0.4506424897878707
  0.5060793650558586  0.0054877317142929  0.4508207832057970
  0.4983388478381557  0.4678108010118080  0.4586651300530845
  0.3330868815930470  0.1580483412891366  0.3967341369890660
  0.3346729228185979  0.6617667205085513  0.3991210487096298
  0.8372909109036056  0.1636717642405745  0.3975635750075858
  0.8293205192141778  0.6596689956790225  0.3976945204806935
  0.1702179149238379  0.3292138479175287  0.4009064653063963
  0.1635280373145293  0.8254804122042724  0.3982470612618582
  0.6689408394242541  0.3286147592641928  0.3938796971439177
  0.6666657936766962  0.8252691281418866  0.4008653801540731
  0.3164695119316695  0.3088203373254679  0.3668088086928701
  0.3151031388731365  0.8176131535560381  0.3652627402920668
  0.8248202478012356  0.3222751594643565  0.3623825987434803
  0.8171871858056755  0.8200273993655501  0.3664003360532237
  0.1814396260035631  0.4852721585588044  0.3659292022322275
  0.1806299614994598 -0.0011088352459232  0.3666614442677542
  0.6717959026220928  0.4880692605779525  0.3627549721644949
  0.6867707568440833 -0.0025781968854905  0.3675676833140063
 -0.0003856318178652  0.1764324625330497  0.3682242117919142
  0.0065641475042497  0.6806698795699224  0.3640704870748364
  0.5070731936117704  0.1717030818659886  0.3625641693302595
  0.5083931700729807  0.6849706802648471  0.3651768266836302
 -0.0023028687915602  0.3184051199500252  0.4289086318669538
  0.0040324367542651  0.8201168168565210  0.4293394608197795
  0.4986214980012649  0.3055701110226907  0.4255383335496298
  0.5048179366993450  0.8270586300557742  0.4297106796138094
  0.1725990784913640  0.1696953732286818  0.4299904031054221
  0.1697337732591051  0.6721054042094101  0.4296658784820488
  0.6877007903207177  0.1768195335802382  0.4253778438465058
  0.6647053212065056  0.6640536652644260  0.4298650527093059
  0.3274496428277611  0.4875522780731167  0.4303176306132017
  0.3208913587246374 -0.0026016291522479  0.4271613747263371
  0.8155336789357411  0.4850708934555907  0.4273175421181666
  0.8224235956387967  0.9907229533151789  0.4309138856323368
 
  0.00000000E+00  0.00000000E+00  0.00000000E+00
  0.00000000E+00  0.00000000E+00  0.00000000E+00
  0.00000000E+00  0.00000000E+00  0.00000000E+00
  0.00000000E+00  0.00000000E+00  0.00000000E+00
  0.00000000E+00  0.00000000E+00  0.00000000E+00
  0.00000000E+00  0.00000000E+00  0.00000000E+00
  0.00000000E+00  0.00000000E+00  0.00000000E+00
  0.00000000E+00  0.00000000E+00  0.00000000E+00
  0.00000000E+00  0.00000000E+00  0.00000000E+00
  0.00000000E+00  0.00000000E+00  0.00000000E+00
  0.00000000E+00  0.00000000E+00  0.00000000E+00
  0.00000000E+00  0.00000000E+00  0.00000000E+00
  0.00000000E+00  0.00000000E+00  0.00000000E+00
  0.00000000E+00  0.00000000E+00  0.00000000E+00
  0.00000000E+00  0.00000000E+00  0.00000000E+00
  0.00000000E+00  0.00000000E+00  0.00000000E+00
  0.00000000E+00  0.00000000E+00  0.00000000E+00
  0.00000000E+00  0.00000000E+00  0.00000000E+00
  0.00000000E+00  0.00000000E+00  0.00000000E+00
  0.00000000E+00  0.00000000E+00  0.00000000E+00
  0.00000000E+00  0.00000000E+00  0.00000000E+00
  0.00000000E+00  0.00000000E+00  0.00000000E+00
  0.00000000E+00  0.00000000E+00  0.00000000E+00
  0.00000000E+00  0.00000000E+00  0.00000000E+00
  0.00000000E+00  0.00000000E+00  0.00000000E+00
  0.00000000E+00  0.00000000E+00  0.00000000E+00
  0.00000000E+00  0.00000000E+00  0.00000000E+00
  0.00000000E+00  0.00000000E+00  0.00000000E+00
  0.00000000E+00  0.00000000E+00  0.00000000E+00
  0.00000000E+00  0.00000000E+00  0.00000000E+00
  0.00000000E+00  0.00000000E+00  0.00000000E+00
  0.00000000E+00  0.00000000E+00  0.00000000E+00
  0.00000000E+00  0.00000000E+00  0.00000000E+00
  0.00000000E+00  0.00000000E+00  0.00000000E+00
  0.00000000E+00  0.00000000E+00  0.00000000E+00
  0.00000000E+00  0.00000000E+00  0.00000000E+00
  0.00000000E+00  0.00000000E+00  0.00000000E+00
  0.00000000E+00  0.00000000E+00  0.00000000E+00
  0.00000000E+00  0.00000000E+00  0.00000000E+00
  0.00000000E+00  0.00000000E+00  0.00000000E+00
  0.00000000E+00  0.00000000E+00  0.00000000E+00
  0.00000000E+00  0.00000000E+00  0.00000000E+00
  0.00000000E+00  0.00000000E+00  0.00000000E+00
  0.00000000E+00  0.00000000E+00  0.00000000E+00
  0.00000000E+00  0.00000000E+00  0.00000000E+00
  0.00000000E+00  0.00000000E+00  0.00000000E+00
  0.00000000E+00  0.00000000E+00  0.00000000E+00
  0.00000000E+00  0.00000000E+00  0.00000000E+00
  0.00000000E+00  0.00000000E+00  0.00000000E+00
  0.00000000E+00  0.00000000E+00  0.00000000E+00
  0.00000000E+00  0.00000000E+00  0.00000000E+00
  0.00000000E+00  0.00000000E+00  0.00000000E+00
  0.00000000E+00  0.00000000E+00  0.00000000E+00
  0.00000000E+00  0.00000000E+00  0.00000000E+00
  0.00000000E+00  0.00000000E+00  0.00000000E+00
  0.00000000E+00  0.00000000E+00  0.00000000E+00
  0.00000000E+00  0.00000000E+00  0.00000000E+00
  0.00000000E+00  0.00000000E+00  0.00000000E+00
  0.00000000E+00  0.00000000E+00  0.00000000E+00
  0.00000000E+00  0.00000000E+00  0.00000000E+00
  0.00000000E+00  0.00000000E+00  0.00000000E+00
  0.00000000E+00  0.00000000E+00  0.00000000E+00
  0.00000000E+00  0.00000000E+00  0.00000000E+00
  0.00000000E+00  0.00000000E+00  0.00000000E+00
  0.00000000E+00  0.00000000E+00  0.00000000E+00
  0.00000000E+00  0.00000000E+00  0.00000000E+00
  0.00000000E+00  0.00000000E+00  0.00000000E+00
  0.00000000E+00  0.00000000E+00  0.00000000E+00
  0.00000000E+00  0.00000000E+00  0.00000000E+00
  0.00000000E+00  0.00000000E+00  0.00000000E+00
  0.00000000E+00  0.00000000E+00  0.00000000E+00
  0.00000000E+00  0.00000000E+00  0.00000000E+00
  0.00000000E+00  0.00000000E+00  0.00000000E+00
  0.00000000E+00  0.00000000E+00  0.00000000E+00
  0.00000000E+00  0.00000000E+00  0.00000000E+00
  0.00000000E+00  0.00000000E+00  0.00000000E+00
  0.00000000E+00  0.00000000E+00  0.00000000E+00
  0.00000000E+00  0.00000000E+00  0.00000000E+00
  0.00000000E+00  0.00000000E+00  0.00000000E+00
  0.00000000E+00  0.00000000E+00  0.00000000E+00
  0.00000000E+00  0.00000000E+00  0.00000000E+00
  0.00000000E+00  0.00000000E+00  0.00000000E+00
  0.00000000E+00  0.00000000E+00  0.00000000E+00
  0.00000000E+00  0.00000000E+00  0.00000000E+00
  0.00000000E+00  0.00000000E+00  0.00000000E+00
  0.00000000E+00  0.00000000E+00  0.00000000E+00
  0.00000000E+00  0.00000000E+00  0.00000000E+00
  0.00000000E+00  0.00000000E+00  0.00000000E+00
  0.00000000E+00  0.00000000E+00  0.00000000E+00
  0.00000000E+00  0.00000000E+00  0.00000000E+00
  0.00000000E+00  0.00000000E+00  0.00000000E+00
  0.00000000E+00  0.00000000E+00  0.00000000E+00
  0.00000000E+00  0.00000000E+00  0.00000000E+00
  0.00000000E+00  0.00000000E+00  0.00000000E+00
  0.00000000E+00  0.00000000E+00  0.00000000E+00
  0.00000000E+00  0.00000000E+00  0.00000000E+00
  0.00000000E+00  0.00000000E+00  0.00000000E+00
  0.00000000E+00  0.00000000E+00  0.00000000E+00
  0.00000000E+00  0.00000000E+00  0.00000000E+00
  0.00000000E+00  0.00000000E+00  0.00000000E+00
  0.00000000E+00  0.00000000E+00  0.00000000E+00
  0.00000000E+00  0.00000000E+00  0.00000000E+00
  0.00000000E+00  0.00000000E+00  0.00000000E+00
  0.00000000E+00  0.00000000E+00  0.00000000E+00
  0.00000000E+00  0.00000000E+00  0.00000000E+00
  0.00000000E+00  0.00000000E+00  0.00000000E+00
  0.00000000E+00  0.00000000E+00  0.00000000E+00
  0.00000000E+00  0.00000000E+00  0.00000000E+00
  0.00000000E+00  0.00000000E+00  0.00000000E+00
  0.00000000E+00  0.00000000E+00  0.00000000E+00
  0.00000000E+00  0.00000000E+00  0.00000000E+00
  0.00000000E+00  0.00000000E+00  0.00000000E+00
  0.00000000E+00  0.00000000E+00  0.00000000E+00
  0.00000000E+00  0.00000000E+00  0.00000000E+00
  0.00000000E+00  0.00000000E+00  0.00000000E+00
  0.00000000E+00  0.00000000E+00  0.00000000E+00
  0.00000000E+00  0.00000000E+00  0.00000000E+00
  0.00000000E+00  0.00000000E+00  0.00000000E+00
  0.00000000E+00  0.00000000E+00  0.00000000E+00
  0.00000000E+00  0.00000000E+00  0.00000000E+00
  0.00000000E+00  0.00000000E+00  0.00000000E+00
  0.00000000E+00  0.00000000E+00  0.00000000E+00
  0.00000000E+00  0.00000000E+00  0.00000000E+00
