Converted by xsd2pos.py                 
   1.00000000000000     
    10.1502230000000004    0.0000000000000000    0.0000000000000000
    -5.0750975100000000    8.7903671299999999    0.0000000000000000
     0.0000000000000000   -0.0000535100000000   34.9384000000000015
   Mo   N    Si   Ni   O    Te   H 
    12    48    24    12    24     4     1
Direct
  0.1666736600913077  0.0000457988591016  0.6100613467280012
  0.1663730508692700  0.5002223369677334  0.6099364183199060
  0.6671657126894905  0.0003621066337228  0.6099240370084946
  0.6665002873772200  0.4995513645337324  0.6099254296606351
  0.3336103021964972  0.3331142635207446  0.6099363489992916
  0.3329436106223060  0.8332374107633406  0.6099279191985214
  0.8334340111255890  0.3334135992249254  0.6100612650974100
  0.8337565355123691  0.8339073168121544  0.6099214202260473
  0.0002850688609996  0.1668965243028588  0.6100397554284054
 -0.0001761074830507  0.6666520114466535  0.6100352783349989
  0.5000387708308225  0.1664231706925177  0.6100367337070867
  0.5000485635317441  0.6666554235106316  0.6096808897734490
  0.1671698765992176  0.1671218088505717  0.5742155167625804
  0.1667872468502120  0.6671243466039095  0.5741524364610386
  0.6671850060525095  0.1671555994627639  0.5742097836171542
  0.6671530010532476  0.6671278206666892  0.5741190241012631
  0.1670048487340696  0.1669637448409852  0.6460192197218814
  0.1668069042991149  0.6667561877567026  0.6458857267594721
  0.6667888780507684  0.1665575028804133  0.6460112954937582
  0.6651730404125907  0.6667652389305881  0.6458250816486760
  0.1668103724869398  0.0001138014009903  0.7111929355683128
  0.1664699798793849  0.4997204809587689  0.7111416674683365
  0.6668038118957487  0.0005143082207526  0.7111177635218336
  0.6672335508186473  0.5001709897995633  0.7111169070444164
  0.1657624158373152  0.0001129974973769  0.5095713338460204
  0.1657286656117290  0.5001066150877911  0.5095547387699817
  0.6658022877089119  0.0001532458701305  0.5095474598025842
  0.6657772745097473  0.5000622641501807  0.5095502660945198
  0.3328399596560653  0.9999152532340929  0.5742106701727304
  0.3328829776687932  0.4999347372644304  0.5741294674361057
  0.8332644109122355  0.0003155037137546  0.5741482007036904
  0.8328762348588642  0.4998909180664104  0.5742090799600872
  0.3333190873694754  0.9998093342818090  0.6460120135817856
  0.3349948331582289  0.5016814948815946  0.6458554507396008
  0.8333238525729398  0.0000107765154498  0.6458747022378906
  0.8331269498181024  0.5000141110600038  0.6460093926602416
  0.3331027219694159  0.3330954221228185  0.7111400696808816
  0.3335496265636675  0.8338656596042592  0.7111223347330733
  0.8334981229564232  0.3334514476803166  0.7111921010591644
  0.8338815117381387  0.8334324078711871  0.7111137775485014
  0.3343370356828807  0.3341956881986167  0.5095568326405767
  0.3342910298963482  0.8342449270272805  0.5095482970226932
  0.8343517336024399  0.3342379167846961  0.5095722087447232
  0.8343789884980013  0.8342716123665057  0.5095453195308678
  0.0000753666973514  0.3330470905121036  0.5742166946322291
  0.0001107390309545  0.8330576733450468  0.5742080362461166
  0.5000707040014888  0.3326532329712334  0.5741556834906204
  0.5000767972285726  0.8330254928671808  0.5741197830033647
  0.0002764103432427  0.3335799772992471  0.6460190341215083
 -0.0001308392593664  0.8333595187635047  0.6460087926098940
  0.5000692351532183  0.3333777709448554  0.6458832319880430
  0.5000806603033169  0.8317391629341256  0.6458303455694252
  0.9996719468359233  0.1662946540665927  0.7110552855060681
  0.0006481025353842  0.6667648589517241  0.7110494339868334
  0.5001388806978423  0.1672650550276871  0.7110505018890555
  0.5002565086596812  0.6668663518448024  0.7120275889230538
  0.4998940413401943  0.1656009795766223  0.5095588436783477
  0.4998899865569949  0.6656647380073529  0.5095167923545686
  0.9999660223825420  0.1657356566506708  0.5095609680567728
  0.9998335553162656  0.6656676688036557  0.5095554655505490
  0.1656969441552806  0.1653668162824080  0.6959346783062543
  0.1664450152902205  0.6667817079470882  0.6956792016341141
  0.6671214844910819  0.1682524300147525  0.6959241422050785
  0.6755411216096752  0.6668179239705520  0.6945888828001396
  0.1673586539994348  0.1673677235569610  0.5239490077319197
  0.1673061246370667  0.6673866984137407  0.5238831780630911
  0.6673780098563306  0.1673979592740632  0.5239428367787730
  0.6673606690470821  0.6673600468450909  0.5238634654322601
  0.3331615153459986  0.0012553984164636  0.6959269818458383
  0.3248536210837145  0.4914758707899274  0.6946303554953526
  0.8339086224867210  0.0005427904018171  0.6956626990404483
  0.8346396034796351  0.4997991551173595  0.6959236626118651
  0.3326020086930817  0.9999839861994073  0.5239443760764370
  0.3326190583843427  0.4999717769888679  0.5238692885088958
  0.8326687575317714  0.0000264248366604  0.5238804330546504
  0.8326365789190701  0.4999656297295911  0.5239425507920720
  0.9987486567283668  0.3323210211628101  0.6959328888930905
  0.0016205022460762  0.8337361218758101  0.6959227661239673
  0.5001541265150671  0.3330518970612349  0.6956743490471230
  0.5001957320718827  0.8421719213750715  0.6945939408384131
  0.0000180682128306  0.3326586489849152  0.5239504340274808
  0.0000327810950338  0.8326675013099509  0.5239408607849275
  0.5000273000214154  0.3326095731667397  0.5238903006343590
  0.5000064448092814  0.8326764151045603  0.5238615340493465
 -0.0000054104877159 -0.0000081966845775  0.3495726979389598
 -0.0000117880267723  0.4999884090923644  0.3495723766862903
  0.4999893406871983 -0.0000083111876638  0.3495746747662013
  0.4999831486052875  0.4999940400901927  0.3495725105931957
  0.0000120957578075 -0.0000023043351068  0.4410824501641081
 -0.0000251774450892  0.4999785420057994  0.4410817357314420
  0.4999924852591265  0.0000155364747485  0.4410820626279415
  0.4999846721357144  0.4999865730093757  0.4410736230806622
  0.3333253354955539  0.1666618410579043  0.3948389044784369
  0.3333196138006046  0.6666585681537729  0.3948399349882238
  0.8333240256495154  0.1666567076053661  0.3948398543494627
  0.8333258389764612  0.6666585001204421  0.3948385655584762
  0.3184327671407070  0.3245354751883411  0.3621596971712867
  0.3184351671261511  0.8245288035780742  0.3621595817825723
  0.8184327515906323  0.3245301778110943  0.3621575712538856
  0.8184328443785439  0.8245346992438264  0.3621605850465346
  0.1754501301998853  0.4938930299483774  0.3621589271381867
  0.1754531903751050  0.9938946496738743  0.3621580630675689
  0.6754411831261435  0.4938938099784136  0.3621586885537253
  0.6754492882565510  0.9938931365477214  0.3621612163199972
  0.0060960710330847  0.1815519089704999  0.3621594271029685
  0.0060939803610169  0.6815483621154170  0.3621595875723772
  0.5060941361524004  0.1815540916392708  0.3621599301507955
  0.5060939924253469  0.6815556967785620  0.3621621928929428
  0.0062668296026692  0.3247928307598410  0.4271405685718354
  0.0062686985864584  0.8247925520164108  0.4271398334999248
  0.5062713201081089  0.3247968107821754  0.4271441275733061
  0.5062702887618870  0.8248046841478758  0.4271468601421238
  0.1752008243896763  0.1814766415579335  0.4271412668973188
  0.1751866747540834  0.6814651751611525  0.4271462107680344
  0.6751990757167329  0.1814779878967502  0.4271413004782031
  0.6751931259098630  0.6814703213479050  0.4271483296501434
  0.3185126145808201  0.4937175587071596  0.4271453776402672
  0.3185111314052453  0.9937148606089309  0.4271417171506143
  0.8185099217032680  0.4937157516684633  0.4271404412085384
  0.8185209225468748  0.9937144866622099  0.4271479038649909
  0.1666651137594033  0.3333326676359115  0.3946172941966282
  0.1666635232700711  0.8333331314535559  0.3946169051440430
  0.6666658019674816  0.3333326076997332  0.3946169855823242
  0.6666671745106214  0.8333338362508687  0.3946175440461397
  0.5005407533726723  0.6670776564552622  0.7415543205702154
 
  0.00000000E+00  0.00000000E+00  0.00000000E+00
  0.00000000E+00  0.00000000E+00  0.00000000E+00
  0.00000000E+00  0.00000000E+00  0.00000000E+00
  0.00000000E+00  0.00000000E+00  0.00000000E+00
  0.00000000E+00  0.00000000E+00  0.00000000E+00
  0.00000000E+00  0.00000000E+00  0.00000000E+00
  0.00000000E+00  0.00000000E+00  0.00000000E+00
  0.00000000E+00  0.00000000E+00  0.00000000E+00
  0.00000000E+00  0.00000000E+00  0.00000000E+00
  0.00000000E+00  0.00000000E+00  0.00000000E+00
  0.00000000E+00  0.00000000E+00  0.00000000E+00
  0.00000000E+00  0.00000000E+00  0.00000000E+00
  0.00000000E+00  0.00000000E+00  0.00000000E+00
  0.00000000E+00  0.00000000E+00  0.00000000E+00
  0.00000000E+00  0.00000000E+00  0.00000000E+00
  0.00000000E+00  0.00000000E+00  0.00000000E+00
  0.00000000E+00  0.00000000E+00  0.00000000E+00
  0.00000000E+00  0.00000000E+00  0.00000000E+00
  0.00000000E+00  0.00000000E+00  0.00000000E+00
  0.00000000E+00  0.00000000E+00  0.00000000E+00
  0.00000000E+00  0.00000000E+00  0.00000000E+00
  0.00000000E+00  0.00000000E+00  0.00000000E+00
  0.00000000E+00  0.00000000E+00  0.00000000E+00
  0.00000000E+00  0.00000000E+00  0.00000000E+00
  0.00000000E+00  0.00000000E+00  0.00000000E+00
  0.00000000E+00  0.00000000E+00  0.00000000E+00
  0.00000000E+00  0.00000000E+00  0.00000000E+00
  0.00000000E+00  0.00000000E+00  0.00000000E+00
  0.00000000E+00  0.00000000E+00  0.00000000E+00
  0.00000000E+00  0.00000000E+00  0.00000000E+00
  0.00000000E+00  0.00000000E+00  0.00000000E+00
  0.00000000E+00  0.00000000E+00  0.00000000E+00
  0.00000000E+00  0.00000000E+00  0.00000000E+00
  0.00000000E+00  0.00000000E+00  0.00000000E+00
  0.00000000E+00  0.00000000E+00  0.00000000E+00
  0.00000000E+00  0.00000000E+00  0.00000000E+00
  0.00000000E+00  0.00000000E+00  0.00000000E+00
  0.00000000E+00  0.00000000E+00  0.00000000E+00
  0.00000000E+00  0.00000000E+00  0.00000000E+00
  0.00000000E+00  0.00000000E+00  0.00000000E+00
  0.00000000E+00  0.00000000E+00  0.00000000E+00
  0.00000000E+00  0.00000000E+00  0.00000000E+00
  0.00000000E+00  0.00000000E+00  0.00000000E+00
  0.00000000E+00  0.00000000E+00  0.00000000E+00
  0.00000000E+00  0.00000000E+00  0.00000000E+00
  0.00000000E+00  0.00000000E+00  0.00000000E+00
  0.00000000E+00  0.00000000E+00  0.00000000E+00
  0.00000000E+00  0.00000000E+00  0.00000000E+00
  0.00000000E+00  0.00000000E+00  0.00000000E+00
  0.00000000E+00  0.00000000E+00  0.00000000E+00
  0.00000000E+00  0.00000000E+00  0.00000000E+00
  0.00000000E+00  0.00000000E+00  0.00000000E+00
  0.00000000E+00  0.00000000E+00  0.00000000E+00
  0.00000000E+00  0.00000000E+00  0.00000000E+00
  0.00000000E+00  0.00000000E+00  0.00000000E+00
  0.00000000E+00  0.00000000E+00  0.00000000E+00
  0.00000000E+00  0.00000000E+00  0.00000000E+00
  0.00000000E+00  0.00000000E+00  0.00000000E+00
  0.00000000E+00  0.00000000E+00  0.00000000E+00
  0.00000000E+00  0.00000000E+00  0.00000000E+00
  0.00000000E+00  0.00000000E+00  0.00000000E+00
  0.00000000E+00  0.00000000E+00  0.00000000E+00
  0.00000000E+00  0.00000000E+00  0.00000000E+00
  0.00000000E+00  0.00000000E+00  0.00000000E+00
  0.00000000E+00  0.00000000E+00  0.00000000E+00
  0.00000000E+00  0.00000000E+00  0.00000000E+00
  0.00000000E+00  0.00000000E+00  0.00000000E+00
  0.00000000E+00  0.00000000E+00  0.00000000E+00
  0.00000000E+00  0.00000000E+00  0.00000000E+00
  0.00000000E+00  0.00000000E+00  0.00000000E+00
  0.00000000E+00  0.00000000E+00  0.00000000E+00
  0.00000000E+00  0.00000000E+00  0.00000000E+00
  0.00000000E+00  0.00000000E+00  0.00000000E+00
  0.00000000E+00  0.00000000E+00  0.00000000E+00
  0.00000000E+00  0.00000000E+00  0.00000000E+00
  0.00000000E+00  0.00000000E+00  0.00000000E+00
  0.00000000E+00  0.00000000E+00  0.00000000E+00
  0.00000000E+00  0.00000000E+00  0.00000000E+00
  0.00000000E+00  0.00000000E+00  0.00000000E+00
  0.00000000E+00  0.00000000E+00  0.00000000E+00
  0.00000000E+00  0.00000000E+00  0.00000000E+00
  0.00000000E+00  0.00000000E+00  0.00000000E+00
  0.00000000E+00  0.00000000E+00  0.00000000E+00
  0.00000000E+00  0.00000000E+00  0.00000000E+00
  0.00000000E+00  0.00000000E+00  0.00000000E+00
  0.00000000E+00  0.00000000E+00  0.00000000E+00
  0.00000000E+00  0.00000000E+00  0.00000000E+00
  0.00000000E+00  0.00000000E+00  0.00000000E+00
  0.00000000E+00  0.00000000E+00  0.00000000E+00
  0.00000000E+00  0.00000000E+00  0.00000000E+00
  0.00000000E+00  0.00000000E+00  0.00000000E+00
  0.00000000E+00  0.00000000E+00  0.00000000E+00
  0.00000000E+00  0.00000000E+00  0.00000000E+00
  0.00000000E+00  0.00000000E+00  0.00000000E+00
  0.00000000E+00  0.00000000E+00  0.00000000E+00
  0.00000000E+00  0.00000000E+00  0.00000000E+00
  0.00000000E+00  0.00000000E+00  0.00000000E+00
  0.00000000E+00  0.00000000E+00  0.00000000E+00
  0.00000000E+00  0.00000000E+00  0.00000000E+00
  0.00000000E+00  0.00000000E+00  0.00000000E+00
  0.00000000E+00  0.00000000E+00  0.00000000E+00
  0.00000000E+00  0.00000000E+00  0.00000000E+00
  0.00000000E+00  0.00000000E+00  0.00000000E+00
  0.00000000E+00  0.00000000E+00  0.00000000E+00
  0.00000000E+00  0.00000000E+00  0.00000000E+00
  0.00000000E+00  0.00000000E+00  0.00000000E+00
  0.00000000E+00  0.00000000E+00  0.00000000E+00
  0.00000000E+00  0.00000000E+00  0.00000000E+00
  0.00000000E+00  0.00000000E+00  0.00000000E+00
  0.00000000E+00  0.00000000E+00  0.00000000E+00
  0.00000000E+00  0.00000000E+00  0.00000000E+00
  0.00000000E+00  0.00000000E+00  0.00000000E+00
  0.00000000E+00  0.00000000E+00  0.00000000E+00
  0.00000000E+00  0.00000000E+00  0.00000000E+00
  0.00000000E+00  0.00000000E+00  0.00000000E+00
  0.00000000E+00  0.00000000E+00  0.00000000E+00
  0.00000000E+00  0.00000000E+00  0.00000000E+00
  0.00000000E+00  0.00000000E+00  0.00000000E+00
  0.00000000E+00  0.00000000E+00  0.00000000E+00
  0.00000000E+00  0.00000000E+00  0.00000000E+00
  0.00000000E+00  0.00000000E+00  0.00000000E+00
  0.00000000E+00  0.00000000E+00  0.00000000E+00
  0.00000000E+00  0.00000000E+00  0.00000000E+00
  0.00000000E+00  0.00000000E+00  0.00000000E+00
  0.00000000E+00  0.00000000E+00  0.00000000E+00
