generated with latticeMatcher           
   1.00000000000000     
     5.0570508923629625    0.0000000000000000    0.0000000000000000
    -2.5285256795845847    4.3791960148720195    0.0000000000000000
     0.0000000000000000    0.0000000000000000   35.0000000000000000
   Mo   N    Si   Ni   O    Te
     3    12     6     3     6     1
Direct
  0.3332530515527605  0.0000119226792581  0.6101741972502156
  0.6667510208587366  0.6667515480778193  0.6101739872802963
 -0.0000121249312752  0.3332431606413163  0.6101740487103093
  0.3340765110952346  0.3341463465037794  0.5742152731750173
  0.3334146583285136  0.3334325079382148  0.6461448286291115
  0.3331955593563573 -0.0000855245636273  0.7109569836462099
  0.3316775604487025  0.0002040899197639  0.5096281878714750
  0.6658701056123359 -0.0000668068260356  0.5742130835916793
  0.6665449531799158 -0.0000172283703354  0.6461441729303966
  0.6665738818125155  0.6666047953333141  0.7109574202819435
  0.6685428174288194  0.6683541489473482  0.5096286748980804
  0.0000865047365153  0.6659554381518925  0.5742135363749350
 -0.0000086413051649  0.6665600682256022  0.6461418984199618
 -0.0001173767848838  0.3332266672011192  0.7109570497742476
  0.9998481448880981  0.3315068687937672  0.5096310483508328
  0.3332358193734650  0.3332695539392266  0.6963174008018637
  0.3346613320749803  0.3346687379214359  0.5240559903815594
  0.6665258754146896 -0.0000875399301764  0.6963161037672398
  0.6653890334441135  0.0000051703752211  0.5240543922803558
 -0.0001183414845223  0.6665590982269676  0.6963145797644110
  0.0000741352154444  0.6653922047108792  0.5240570356674437
  0.0000150640402500 -0.0000120416278474  0.3486493537736024
  0.0000500157818984  0.0000211734803137  0.4405341337326794
  0.6667152465707809  0.3333563865507788  0.3943597197091139
  0.6368726921918015  0.6486150784830460  0.3616215478557145
  0.3514544860179444  0.9883141494995287  0.3616238209059272
  0.0117712929310718  0.3631500959812159  0.3616250729369217
  0.0120705830812758  0.6487371030235787  0.4267056734723398
  0.3513443621620895  0.3633158661532559  0.4267097212631768
  0.6367988484836266  0.9880773126997116  0.4267025634030987
  0.3334436473892048  0.6667904007483194  0.3941405360998440
 
  0.00000000E+00  0.00000000E+00  0.00000000E+00
  0.00000000E+00  0.00000000E+00  0.00000000E+00
  0.00000000E+00  0.00000000E+00  0.00000000E+00
  0.00000000E+00  0.00000000E+00  0.00000000E+00
  0.00000000E+00  0.00000000E+00  0.00000000E+00
  0.00000000E+00  0.00000000E+00  0.00000000E+00
  0.00000000E+00  0.00000000E+00  0.00000000E+00
  0.00000000E+00  0.00000000E+00  0.00000000E+00
  0.00000000E+00  0.00000000E+00  0.00000000E+00
  0.00000000E+00  0.00000000E+00  0.00000000E+00
  0.00000000E+00  0.00000000E+00  0.00000000E+00
  0.00000000E+00  0.00000000E+00  0.00000000E+00
  0.00000000E+00  0.00000000E+00  0.00000000E+00
  0.00000000E+00  0.00000000E+00  0.00000000E+00
  0.00000000E+00  0.00000000E+00  0.00000000E+00
  0.00000000E+00  0.00000000E+00  0.00000000E+00
  0.00000000E+00  0.00000000E+00  0.00000000E+00
  0.00000000E+00  0.00000000E+00  0.00000000E+00
  0.00000000E+00  0.00000000E+00  0.00000000E+00
  0.00000000E+00  0.00000000E+00  0.00000000E+00
  0.00000000E+00  0.00000000E+00  0.00000000E+00
  0.00000000E+00  0.00000000E+00  0.00000000E+00
  0.00000000E+00  0.00000000E+00  0.00000000E+00
  0.00000000E+00  0.00000000E+00  0.00000000E+00
  0.00000000E+00  0.00000000E+00  0.00000000E+00
  0.00000000E+00  0.00000000E+00  0.00000000E+00
  0.00000000E+00  0.00000000E+00  0.00000000E+00
  0.00000000E+00  0.00000000E+00  0.00000000E+00
  0.00000000E+00  0.00000000E+00  0.00000000E+00
  0.00000000E+00  0.00000000E+00  0.00000000E+00
  0.00000000E+00  0.00000000E+00  0.00000000E+00
