IVDW  =  11

DFT+U Calculation
LDAU   = .TRUE.        (Activate DFT+U)
LDATYPE=  2            (Dudarev; only U-J matters)
LDAUL  =  2 -1 -1 2 -1 -1        (Orbitals for each species)
LDAUU  =  3.5 0.0 0.0 4.6 0.0 0.0         (U for each species)
LDAUJ  =  0.0 0.0 0.0 0.0 0.0 0.0         (J for each species)
LMAXMIX=  4            (Mixing cut-off; 4-d, 6-f)

Global Parameters
ISTART =  1            (Read existing wavefunction; if there)
ISPIN =  2           (Spin polarised DFT)
# ICHARG =  11         (Non-self-consistent: GGA/LDA band structures)
LREAL  = Auto          (Projection operators: automatic)
ENCUT  =  520        (Cut-off energy for plane wave basis set, in eV)
PREC   =  Normal       (Precision level)
LWAVE  = .TRUE.        (Write WAVECAR or not)
LCHARG = .TRUE.        (Write CHGCAR or not)
ADDGRID= .TRUE.        (Increase grid; helps GGA convergence)
# LVTOT  = .TRUE.      (Write total electrostatic potential into LOCPOT or not)
# LVHAR  = .TRUE.      (Write ionic + Hartree electrostatic potential into LOCPOT or not)
# NELECT =             (No. of electrons: charged cells; be careful)
# LPLANE = .TRUE.      (Real space distribution; supercells)
NPAR   = 2           (Max is no. nodes; don't set for hybrids)
# NWRITE = 2           (Medium-level output)
KPAR   = 1           (Divides k-grid into separate groups)
# NGX    = 500         (FFT grid mesh density for nice charge/potential plots)
# NGY    = 500         (FFT grid mesh density for nice charge/potential plots)
# NGZ    = 500         (FFT grid mesh density for nice charge/potential plots)


Lattice Relaxation
NSW    =  300          (number of ionic steps. Make it odd.)
ISMEAR =  0            (gaussian smearing method )
SIGMA  =  0.05         (please check the width of the smearing)
IBRION =  2            (Algorithm: 0-MD; 1-Quasi-New; 2-CG)
ISIF   =  3            (optimize atomic coordinates and lattice parameters)
EDIFFG = -1.5E-02      (Ionic convergence; eV/AA)
# PREC   =  High         (Precision level)
ISYM = 0
 
