generated with latticeMatcher
1.0
        5.1663999557         0.0000000000         0.0000000000
       -2.5832002163         4.4742340207         0.0000000000
        0.0000000000         0.0000000000        35.0000000000
   Mo    N   Si   Ni    O   Te
    3   12    6    3    6    1
Cartesian
     1.722131522         0.000000000        21.500010192
     1.722133981         2.982824103        21.500010192
    -0.861065841         1.491409785        21.500010192
     0.861065682         1.491409785        20.236194134
     0.861065682         1.491409785        22.763790786
     1.722131522         0.000000000        25.041940808
     1.722131522         0.000000000        17.958079576
     3.444268280         0.000000000        20.236194134
     3.444268280         0.000000000        22.763790786
     1.722133981         2.982824103        25.041940808
     1.722133981         2.982824103        17.958079576
    -1.722134299         2.982824103        20.236194134
    -1.722134299         2.982824103        22.763790786
    -0.861065841         1.491409785        25.041940808
    -0.861065841         1.491409785        17.958079576
     0.861065682         1.491409785        24.519354999
     0.861065682         1.491409785        18.480629921
     3.444268280         0.000000000        24.519354999
     3.444268280         0.000000000        18.480629921
    -1.722134299         2.982824103        24.519354999
    -1.722134299         2.982824103        18.480629921
    -0.000002583         0.000004474        11.969930381
     0.000007750         0.000013423        15.030084699
     2.583186888         1.491391917        13.499710262
     1.610250393         2.911594372        12.375824600
    -0.743447843         4.412959379        12.375824600
    -0.866808340         1.623914291        12.375860065
    -1.610674441         2.911415426        14.624085128
     0.867185241         1.623663741        14.624085128
     0.743498952         4.413415677        14.624085128
     0.000005076         2.982801701        13.500480056
