cif2pos.py
1.0
    10.15020000     0.00000000     0.00000000
    -5.07508466     8.79033991     0.00000000
     0.00000000    -0.00007041    34.93840000
  Mo  Si  N  Ni  Te  O  H
  12  24  48  12  4  23  1
Direct
     0.16665000     0.00000000     0.60974000
     0.16658000     0.49996000     0.60986000
     0.66676000     0.00009000     0.60977000
     0.66660000     0.50000000     0.60974000
     0.33343000     0.33319000     0.60983000
     0.33342000     0.83338000     0.60983000
     0.83347000     0.33339000     0.60975000
     0.83336000     0.83335000     0.60972000
     0.00011000     0.16669000     0.60970000
     0.00000000     0.66665000     0.60980000
     0.50006000     0.16664000     0.60975000
     0.50021000     0.66672000     0.60987000
     0.16670000     0.16665000     0.69602000
     0.16667000     0.66667000     0.69603000
     0.66673000     0.16667000     0.69602000
     0.66669000     0.66667000     0.69602000
     0.16726000     0.16732000     0.52342000
     0.16757000     0.66740000     0.52370000
     0.66723000     0.16737000     0.52349000
     0.66722000     0.66693000     0.52338000
     0.33336000     0.00000000     0.69603000
     0.33334000     0.49999000     0.69603000
     0.83339000     0.00002000     0.69601000
     0.83333000     0.50000000     0.69603000
     0.33278000     0.00014000     0.52360000
     0.33318000     0.50029000     0.52418000
     0.83261000     0.99977000     0.52346000
     0.83266000     0.49989000     0.52362000
     0.00001000     0.33332000     0.69603000
     0.00001000     0.83333000     0.69602000
     0.50002000     0.33331000     0.69602000
     0.50004000     0.83335000     0.69603000
     0.00019000     0.33277000     0.52339000
     0.00010000     0.83265000     0.52351000
     0.50034000     0.33313000     0.52339000
     0.50000000     0.83268000     0.52375000
     0.16738000     0.16730000     0.57374000
     0.16715000     0.66703000     0.57389000
     0.66704000     0.16702000     0.57378000
     0.66680000     0.66709000     0.57376000
     0.16667000     0.16660000     0.64572000
     0.16668000     0.66672000     0.64576000
     0.66680000     0.16677000     0.64572000
     0.66684000     0.66674000     0.64573000
     0.16668000     0.99998000     0.71058000
     0.16666000     0.49999000     0.71058000
     0.66674000     0.00002000     0.71057000
     0.66666000     0.49999000     0.71058000
     0.16597000     0.00005000     0.50931000
     0.16711000     0.50058000     0.50927000
     0.66540000     0.99980000     0.50918000
     0.66622000     0.50009000     0.50939000
     0.33302000     0.99983000     0.57385000
     0.33314000     0.50001000     0.57412000
     0.83283000     0.99989000     0.57376000
     0.83314000     0.50007000     0.57388000
     0.33333000     0.00003000     0.64573000
     0.33335000     0.49992000     0.64578000
     0.83342000     0.00006000     0.64570000
     0.83328000     0.49997000     0.64573000
     0.33336000     0.33330000     0.71058000
     0.33336000     0.83334000     0.71058000
     0.83337000     0.33334000     0.71058000
     0.83336000     0.83335000     0.71057000
     0.33442000     0.33523000     0.50905000
     0.33446000     0.83426000     0.50924000
     0.83436000     0.33424000     0.50932000
     0.83424000     0.83389000     0.50919000
     0.00038000     0.33329000     0.57374000
     0.00003000     0.83284000     0.57379000
     0.49979000     0.33288000     0.57374000
     0.50003000     0.83285000     0.57391000
     0.00000000     0.33320000     0.64573000
     0.00000000     0.83333000     0.64572000
     0.50007000     0.33323000     0.64573000
     0.50015000     0.83342000     0.64576000
     0.00004000     0.16666000     0.71057000
     0.00000000     0.66667000     0.71058000
     0.50004000     0.16665000     0.71057000
     0.50003000     0.66667000     0.71059000
     0.49975000     0.16576000     0.50923000
     0.49935000     0.66546000     0.50919000
     0.99977000     0.16552000     0.50930000
     0.00025000     0.66552000     0.50923000
     0.00231000     0.01043000     0.35180000
     0.00012000     0.49812000     0.34975000
     0.50293000     0.00104000     0.34958000
     0.49904000     0.49547000     0.34823000
     0.00174000     0.00066000     0.44114000
     0.99835000     0.50321000     0.44135000
     0.49838000     0.99577000     0.44103000
     0.47788000     0.49331000     0.43663000
     0.33199000     0.16476000     0.39443000
     0.33344000     0.66993000     0.39101000
     0.83980000     0.17111000     0.39804000
     0.83079000     0.66497000     0.39558000
     0.18479000     0.34818000     0.39756000
     0.16476000     0.83201000     0.39446000
     0.66565000     0.33282000     0.39530000
     0.66676000     0.83294000     0.39462000
     0.31927000     0.32005000     0.35993000
     0.31724000     0.82696000     0.36073000
     0.82032000     0.32414000     0.36429000
     0.82214000     0.82771000     0.36342000
     0.17785000     0.49692000     0.36053000
     0.17288000     0.99220000     0.36238000
     0.67580000     0.49315000     0.36243000
     0.67912000     0.99745000     0.36352000
     0.01535000     0.19139000     0.36701000
     0.00325000     0.67883000     0.36284000
     0.50720000     0.18103000     0.36246000
     0.50763000     0.68033000     0.36132000
     0.01379000     0.33202000     0.43031000
     0.00540000     0.82183000     0.42788000
     0.50137000     0.32489000     0.42695000
     0.49896000     0.81714000     0.42589000
     0.17945000     0.18001000     0.42910000
     0.17886000     0.67856000     0.42574000
     0.67245000     0.18073000     0.42843000
     0.66178000     0.67249000     0.42666000
     0.31804000     0.99120000     0.42690000
     0.81485000     0.49322000     0.42823000
     0.81492000     0.98855000     0.42889000
     0.32709000     0.49020000     0.42996000
