KPT-Resolved Value to Generate K-Mesh: 0.030
0
Monkhorst-Pack
   7   7   1
0.0  0.0  0.0
