cif2pos.py                              
   1.00000000000000     
     5.2211793257832202    0.0000000000000000    0.0000000000000000
    -2.6105896628916101    4.5216109088065570    0.0000000000000000
     0.0000000000000000    0.0000000000000000   27.8862999999999985
   Ni   Te   O 
     3     1     6
Direct
  0.0000080562293050  0.0000034131028741  0.4768493171858808
  0.9999937249813371  0.9999943486374647  0.5829054703091430
  0.6666676370600868  0.3333353246806183  0.5297274782756958
  0.3333340306786212  0.6666648312118326  0.5299050808278665
  0.6376777799215958  0.6537423083281624  0.4902165009429638
  0.3462560584792129  0.9839302980812974  0.4902174584232384
  0.0160657721497373  0.3623261363238583  0.4902155278908822
  0.0157040634696983  0.6536720213089140  0.5694907213629037
  0.3463209692622726  0.3620301459093369  0.5694910488278992
  0.6379729077681233  0.9843021724156458  0.5694903959535296
 
  0.00000000E+00  0.00000000E+00  0.00000000E+00
  0.00000000E+00  0.00000000E+00  0.00000000E+00
  0.00000000E+00  0.00000000E+00  0.00000000E+00
  0.00000000E+00  0.00000000E+00  0.00000000E+00
  0.00000000E+00  0.00000000E+00  0.00000000E+00
  0.00000000E+00  0.00000000E+00  0.00000000E+00
  0.00000000E+00  0.00000000E+00  0.00000000E+00
  0.00000000E+00  0.00000000E+00  0.00000000E+00
  0.00000000E+00  0.00000000E+00  0.00000000E+00
  0.00000000E+00  0.00000000E+00  0.00000000E+00
