Converted by xsd2pos.py                 
   1.00000000000000     
    10.1502230000000004    0.0000000000000000    0.0000000000000000
    -5.0750975100000000    8.7903671299999999    0.0000000000000000
     0.0000000000000000   -0.0000535100000000   34.9384000000000015
   Mo   N    Si   Ni   O    Te   H 
    12    48    24    12    24     4     1
Direct
  0.1666205787129655  0.0000389627262720  0.6098005629679406
  0.1666251111774386  0.5000422273480041  0.6097946078110752
  0.6666221626530699  0.0000439160310322  0.6097982381589588
  0.6666216563404177  0.5000442756739858  0.6097940851843262
  0.3333711433544480  0.3334116066940069  0.6097944418471357
  0.3333656453189278  0.8334087042670006  0.6097990251410010
  0.8333687579981586  0.3334067691045490  0.6097993361644072
  0.8333627647150053  0.8334047785322767  0.6097955929293448
  0.9999841042518014  0.1666634635856923  0.6097992147301738
  0.9999929046118439  0.6666673402991634  0.6098004480966992
  0.4999898443584101  0.1666670965062593  0.6097961994054870
  0.4999882020500479  0.6666625553047538  0.6097923826356464
  0.1670272233935179  0.1671139026998887  0.5738611576498300
  0.1670427030508392  0.6671526840868367  0.5738552212367196
  0.6670559322447502  0.1671387870122132  0.5738548149946539
  0.6670559203261135  0.6671461367565712  0.5738464316228828
  0.1667017859871436  0.1667497444587127  0.6457436029881123
  0.1667014407847418  0.6667427900286995  0.6457435139427758
  0.6666965177344082  0.1667435937747825  0.6457434284097445
  0.6666947200910656  0.6667444416142772  0.6457409622516863
  0.1666602380913460  0.0000076139162459  0.7105770779280789
  0.1666601509493262  0.5000093789788735  0.7105771393151699
  0.6666605753348307  0.0000073461325414  0.7105769935033663
  0.6666609224402436  0.5000085381560737  0.7105767778707133
  0.1657628969748330  0.0001524149003345  0.5092709216754585
  0.1657107749767164  0.5001562481834583  0.5092884104566409
  0.6657650563927859  0.0001309416886457  0.5092785207524102
  0.6657903649521728  0.5001488955680742  0.5092928036876501
  0.3328803317136462  0.9999827941529063  0.5738563051625363
  0.3328860651208885  0.4999907056431709  0.5738478918872971
  0.8328986332898580  0.0000061130045381  0.5738564031058146
  0.8329184030111918  0.5000010536702106  0.5738599952615289
  0.3332853990801610  0.0000331116543819  0.6457438226577565
  0.3332867017542753  0.5000356438675979  0.6457406490471982
  0.8332813859773225  0.0000282820758812  0.6457433509095125
  0.8332800992503948  0.5000304854065547  0.6457436986446083
  0.3333325570871111  0.3333457126238955  0.7105755835886356
  0.3333335896156129  0.8333462485816909  0.7105764511068671
  0.8333319737317808  0.3333435724822920  0.7105768538299131
  0.8333329444590234  0.8333424444998272  0.7105768561014827
  0.3343147172886134  0.3342257868637262  0.5092960919642877
  0.3343254762408989  0.8342590500389164  0.5092690836525904
  0.8343119103270027  0.3342761125753029  0.5092728818779619
  0.8343869720851345  0.8343215547801890  0.5092857851421186
  0.0000196546051754  0.3329774816158988  0.5738539777405478
  0.0000499445160713  0.8329884800793792  0.5738562574588144
  0.5000418462561953  0.3329751908205125  0.5738494674139218
  0.5000299182054562  0.8330027034853416  0.5738560092577103
  0.0000016123943496  0.3333335029037698  0.6457432006235990
  0.9999947812429966  0.8333319821322220  0.6457442158895290
  0.4999985206962307  0.3333340126434905  0.6457414719572441
  0.4999980325468201  0.8333268498457045  0.6457426055088789
  0.9999964892508189  0.1666724306971687  0.7105764886235661
  0.9999974349871650  0.6666716209073158  0.7105758557012933
  0.4999970127745996  0.1666742783616471  0.7105762890566965
  0.4999964783345661  0.6666708019865268  0.7105770961874427
  0.4998756189852074  0.1656288157237000  0.5092843317931752
  0.4998691120116874  0.6657117330470612  0.5092931655531174
  0.9998995544018427  0.1657138858175244  0.5092780549285436
  0.9998637735172125  0.6656964616444867  0.5092710399793035
  0.1666666378177766  0.1666685906879266  0.6960278530156501
  0.1666665976856834  0.6666697148129614  0.6960275825370701
  0.6666666622187947  0.1666669167777357  0.6960278581235926
  0.6666666945348823  0.6666678206096961  0.6960278794613686
  0.1672915544521203  0.1673595258622882  0.5236213399184848
  0.1672738039373201  0.6673568397219185  0.5236103436644726
  0.6672964528541101  0.1673425603670111  0.5236083036642043
  0.6673039877803433  0.6673789727415524  0.5235889311387112
  0.3333325015704816  0.0000008461057917  0.6960277186006607
  0.3333331504531003  0.5000006568379405  0.6960278691846895
  0.8333325531404796  0.0000007439801237  0.6960278746008655
  0.8333331086559070  0.5000007825683852  0.6960278518728487
  0.3326644685199227  0.9999963534622296  0.5236136764708164
  0.3326515894173880  0.4999997848645776  0.5235919176475505
  0.8326824766583698  0.0000224215220186  0.5236117236053488
  0.8326675504404051  0.5000104089442772  0.5236201535160561
  0.0000000540934479  0.3333338691030576  0.6960278006094853
  0.0000000251710901  0.8333337734246484  0.6960277431326674
  0.4999995687495087  0.3333346116542302  0.6960280034770108
  0.4999999468663034  0.8333335159199962  0.6960279269031773
  0.0000002000050543  0.3327513420857926  0.5236064188426965
  0.0000156788980306  0.8327475226284022  0.5236121707055830
  0.5000271361185185  0.3327104363020652  0.5235950127006248
  0.5000122731533736  0.8327335096680670  0.5236113474647723
  0.9999710423385650  0.0002432672042758  0.3497271289403230
  0.9998259166766843  0.4999602502916645  0.3497350975540314
  0.4999763320218946  0.9998763039268539  0.3497334086701045
  0.4998997373194456  0.5001173015672009  0.3448225951968240
  0.0001862368616656  0.0000091745494188  0.4413722841481516
  0.9998622319332426  0.5002831368448426  0.4413494416276507
  0.4995484351652522  0.9998205188283791  0.4413428809953572
  0.4999776714299102  0.5000038063372756  0.4415129751423521
  0.3339435049853208  0.1671339796962812  0.3953674049008100
  0.3329946459567950  0.6660249398102707  0.3954614508247900
  0.8332670550794887  0.1667379657859982  0.3949791784970174
  0.8327018866352205  0.6669270784660384  0.3953599496089808
  0.3229759591134709  0.3291296388314748  0.3634937145221215
  0.3185452017694743  0.8240355119091163  0.3625332368057244
  0.8173992184112535  0.3252374256181767  0.3624718095228516
  0.8188360775639723  0.8249430776891273  0.3628259802160727
  0.1751261111343325  0.4942492509895686  0.3628857309475535
  0.1758133853876416  0.9946049439396347  0.3624851815634926
  0.6708223721048725  0.4940090419733494  0.3634362364344526
  0.6746858631202599  0.9923101496693789  0.3625404006607127
  0.0076791660977804  0.1826098671043610  0.3625284388132144
  0.0052672320097429  0.6813637074709646  0.3624858782757556
  0.5057453864584360  0.1810075076281734  0.3627845199643502
  0.5059046684193831  0.6770093311015941  0.3635308631960257
  0.0054807344171053  0.3245403622216898  0.4275463074403305
  0.0062844376748785  0.8247478476836463  0.4274155587524291
  0.5061452128003268  0.3239428525585950  0.4281348597520349
  0.5061766300658093  0.8245731417955611  0.4275816404093788
  0.1754477619123236  0.1817382564662324  0.4275430716997732
  0.1750479581596025  0.6818240275615750  0.4274657668297195
  0.6753109242265936  0.1810648561045980  0.4274947005515912
  0.6760271509871458  0.6823601147457694  0.4281924513172655
  0.3176230011093324  0.4937838256274674  0.4282297902491337
  0.3180409896089387  0.9935246378725324  0.4274329410550095
  0.8181382575602996  0.4937910478278127  0.4274863826571789
  0.8189032623079271  0.9945246484644059  0.4275472329367247
  0.1669966401369010  0.3342403792096462  0.3953365073459807
  0.1664763500988471  0.8333422251601661  0.3947589716040909
  0.6656990528261701  0.3328588707065094  0.3952591722271350
  0.6670800952993758  0.8330402790645337  0.3953355778197860
  0.4996197955952155  0.5002814413810555  0.2986674744936408
 
  0.00000000E+00  0.00000000E+00  0.00000000E+00
  0.00000000E+00  0.00000000E+00  0.00000000E+00
  0.00000000E+00  0.00000000E+00  0.00000000E+00
  0.00000000E+00  0.00000000E+00  0.00000000E+00
  0.00000000E+00  0.00000000E+00  0.00000000E+00
  0.00000000E+00  0.00000000E+00  0.00000000E+00
  0.00000000E+00  0.00000000E+00  0.00000000E+00
  0.00000000E+00  0.00000000E+00  0.00000000E+00
  0.00000000E+00  0.00000000E+00  0.00000000E+00
  0.00000000E+00  0.00000000E+00  0.00000000E+00
  0.00000000E+00  0.00000000E+00  0.00000000E+00
  0.00000000E+00  0.00000000E+00  0.00000000E+00
  0.00000000E+00  0.00000000E+00  0.00000000E+00
  0.00000000E+00  0.00000000E+00  0.00000000E+00
  0.00000000E+00  0.00000000E+00  0.00000000E+00
  0.00000000E+00  0.00000000E+00  0.00000000E+00
  0.00000000E+00  0.00000000E+00  0.00000000E+00
  0.00000000E+00  0.00000000E+00  0.00000000E+00
  0.00000000E+00  0.00000000E+00  0.00000000E+00
  0.00000000E+00  0.00000000E+00  0.00000000E+00
  0.00000000E+00  0.00000000E+00  0.00000000E+00
  0.00000000E+00  0.00000000E+00  0.00000000E+00
  0.00000000E+00  0.00000000E+00  0.00000000E+00
  0.00000000E+00  0.00000000E+00  0.00000000E+00
  0.00000000E+00  0.00000000E+00  0.00000000E+00
  0.00000000E+00  0.00000000E+00  0.00000000E+00
  0.00000000E+00  0.00000000E+00  0.00000000E+00
  0.00000000E+00  0.00000000E+00  0.00000000E+00
  0.00000000E+00  0.00000000E+00  0.00000000E+00
  0.00000000E+00  0.00000000E+00  0.00000000E+00
  0.00000000E+00  0.00000000E+00  0.00000000E+00
  0.00000000E+00  0.00000000E+00  0.00000000E+00
  0.00000000E+00  0.00000000E+00  0.00000000E+00
  0.00000000E+00  0.00000000E+00  0.00000000E+00
  0.00000000E+00  0.00000000E+00  0.00000000E+00
  0.00000000E+00  0.00000000E+00  0.00000000E+00
  0.00000000E+00  0.00000000E+00  0.00000000E+00
  0.00000000E+00  0.00000000E+00  0.00000000E+00
  0.00000000E+00  0.00000000E+00  0.00000000E+00
  0.00000000E+00  0.00000000E+00  0.00000000E+00
  0.00000000E+00  0.00000000E+00  0.00000000E+00
  0.00000000E+00  0.00000000E+00  0.00000000E+00
  0.00000000E+00  0.00000000E+00  0.00000000E+00
  0.00000000E+00  0.00000000E+00  0.00000000E+00
  0.00000000E+00  0.00000000E+00  0.00000000E+00
  0.00000000E+00  0.00000000E+00  0.00000000E+00
  0.00000000E+00  0.00000000E+00  0.00000000E+00
  0.00000000E+00  0.00000000E+00  0.00000000E+00
  0.00000000E+00  0.00000000E+00  0.00000000E+00
  0.00000000E+00  0.00000000E+00  0.00000000E+00
  0.00000000E+00  0.00000000E+00  0.00000000E+00
  0.00000000E+00  0.00000000E+00  0.00000000E+00
  0.00000000E+00  0.00000000E+00  0.00000000E+00
  0.00000000E+00  0.00000000E+00  0.00000000E+00
  0.00000000E+00  0.00000000E+00  0.00000000E+00
  0.00000000E+00  0.00000000E+00  0.00000000E+00
  0.00000000E+00  0.00000000E+00  0.00000000E+00
  0.00000000E+00  0.00000000E+00  0.00000000E+00
  0.00000000E+00  0.00000000E+00  0.00000000E+00
  0.00000000E+00  0.00000000E+00  0.00000000E+00
  0.00000000E+00  0.00000000E+00  0.00000000E+00
  0.00000000E+00  0.00000000E+00  0.00000000E+00
  0.00000000E+00  0.00000000E+00  0.00000000E+00
  0.00000000E+00  0.00000000E+00  0.00000000E+00
  0.00000000E+00  0.00000000E+00  0.00000000E+00
  0.00000000E+00  0.00000000E+00  0.00000000E+00
  0.00000000E+00  0.00000000E+00  0.00000000E+00
  0.00000000E+00  0.00000000E+00  0.00000000E+00
  0.00000000E+00  0.00000000E+00  0.00000000E+00
  0.00000000E+00  0.00000000E+00  0.00000000E+00
  0.00000000E+00  0.00000000E+00  0.00000000E+00
  0.00000000E+00  0.00000000E+00  0.00000000E+00
  0.00000000E+00  0.00000000E+00  0.00000000E+00
  0.00000000E+00  0.00000000E+00  0.00000000E+00
  0.00000000E+00  0.00000000E+00  0.00000000E+00
  0.00000000E+00  0.00000000E+00  0.00000000E+00
  0.00000000E+00  0.00000000E+00  0.00000000E+00
  0.00000000E+00  0.00000000E+00  0.00000000E+00
  0.00000000E+00  0.00000000E+00  0.00000000E+00
  0.00000000E+00  0.00000000E+00  0.00000000E+00
  0.00000000E+00  0.00000000E+00  0.00000000E+00
  0.00000000E+00  0.00000000E+00  0.00000000E+00
  0.00000000E+00  0.00000000E+00  0.00000000E+00
  0.00000000E+00  0.00000000E+00  0.00000000E+00
  0.00000000E+00  0.00000000E+00  0.00000000E+00
  0.00000000E+00  0.00000000E+00  0.00000000E+00
  0.00000000E+00  0.00000000E+00  0.00000000E+00
  0.00000000E+00  0.00000000E+00  0.00000000E+00
  0.00000000E+00  0.00000000E+00  0.00000000E+00
  0.00000000E+00  0.00000000E+00  0.00000000E+00
  0.00000000E+00  0.00000000E+00  0.00000000E+00
  0.00000000E+00  0.00000000E+00  0.00000000E+00
  0.00000000E+00  0.00000000E+00  0.00000000E+00
  0.00000000E+00  0.00000000E+00  0.00000000E+00
  0.00000000E+00  0.00000000E+00  0.00000000E+00
  0.00000000E+00  0.00000000E+00  0.00000000E+00
  0.00000000E+00  0.00000000E+00  0.00000000E+00
  0.00000000E+00  0.00000000E+00  0.00000000E+00
  0.00000000E+00  0.00000000E+00  0.00000000E+00
  0.00000000E+00  0.00000000E+00  0.00000000E+00
  0.00000000E+00  0.00000000E+00  0.00000000E+00
  0.00000000E+00  0.00000000E+00  0.00000000E+00
  0.00000000E+00  0.00000000E+00  0.00000000E+00
  0.00000000E+00  0.00000000E+00  0.00000000E+00
  0.00000000E+00  0.00000000E+00  0.00000000E+00
  0.00000000E+00  0.00000000E+00  0.00000000E+00
  0.00000000E+00  0.00000000E+00  0.00000000E+00
  0.00000000E+00  0.00000000E+00  0.00000000E+00
  0.00000000E+00  0.00000000E+00  0.00000000E+00
  0.00000000E+00  0.00000000E+00  0.00000000E+00
  0.00000000E+00  0.00000000E+00  0.00000000E+00
  0.00000000E+00  0.00000000E+00  0.00000000E+00
  0.00000000E+00  0.00000000E+00  0.00000000E+00
  0.00000000E+00  0.00000000E+00  0.00000000E+00
  0.00000000E+00  0.00000000E+00  0.00000000E+00
  0.00000000E+00  0.00000000E+00  0.00000000E+00
  0.00000000E+00  0.00000000E+00  0.00000000E+00
  0.00000000E+00  0.00000000E+00  0.00000000E+00
  0.00000000E+00  0.00000000E+00  0.00000000E+00
  0.00000000E+00  0.00000000E+00  0.00000000E+00
  0.00000000E+00  0.00000000E+00  0.00000000E+00
  0.00000000E+00  0.00000000E+00  0.00000000E+00
  0.00000000E+00  0.00000000E+00  0.00000000E+00
  0.00000000E+00  0.00000000E+00  0.00000000E+00
  0.00000000E+00  0.00000000E+00  0.00000000E+00
