cif2pos.py
1.0
    10.15020000     0.00000000     0.00000000
    -5.07508466     8.79033991     0.00000000
     0.00000000    -0.00007041    34.93840000
  Mo  Si  N  Ni  Te  O
  12  24  48  12  4  23
Direct
     0.16663000     0.00000000     0.60991000
     0.16663000     0.50000000     0.60991000
     0.66663000     0.00000000     0.60991000
     0.66663000     0.50000000     0.60991000
     0.33338000     0.33337000     0.60991000
     0.33338000     0.83337000     0.60991000
     0.83338000     0.33337000     0.60991000
     0.83338000     0.83337000     0.60991000
     0.00000000     0.16662000     0.60991000
     0.00000000     0.66662000     0.60991000
     0.50000000     0.16662000     0.60991000
     0.50000000     0.66662000     0.60991000
     0.16666000     0.16666000     0.69612000
     0.16666000     0.66666000     0.69612000
     0.66666000     0.16666000     0.69612000
     0.66666000     0.66666000     0.69612000
     0.16735000     0.16738000     0.52372000
     0.16735000     0.66738000     0.52372000
     0.66735000     0.16738000     0.52372000
     0.66735000     0.66738000     0.52372000
     0.33335000     0.00000000     0.69612000
     0.33335000     0.50000000     0.69612000
     0.83335000     0.00000000     0.69612000
     0.83335000     0.50000000     0.69612000
     0.33262000     0.99997000     0.52372000
     0.33262000     0.49997000     0.52372000
     0.83262000     0.99997000     0.52372000
     0.83262000     0.49997000     0.52372000
     0.00000000     0.33335000     0.69612000
     0.00000000     0.83335000     0.69612000
     0.50000000     0.33335000     0.69612000
     0.50000000     0.83335000     0.69612000
     0.00003000     0.33265000     0.52372000
     0.00003000     0.83265000     0.52372000
     0.50003000     0.33265000     0.52372000
     0.50003000     0.83265000     0.52372000
     0.16705000     0.16709000     0.57397000
     0.16705000     0.66709000     0.57397000
     0.66705000     0.16709000     0.57397000
     0.66705000     0.66709000     0.57397000
     0.16672000     0.16672000     0.64585000
     0.16672000     0.66672000     0.64585000
     0.66672000     0.16672000     0.64585000
     0.66672000     0.66672000     0.64585000
     0.16665000     0.00000000     0.71071000
     0.16665000     0.50000000     0.71071000
     0.66665000     0.00000000     0.71071000
     0.66665000     0.50000000     0.71071000
     0.16579000     0.00011000     0.50940000
     0.16579000     0.50011000     0.50940000
     0.66579000     0.00011000     0.50940000
     0.66579000     0.50011000     0.50940000
     0.33291000     0.99996000     0.57397000
     0.33291000     0.49996000     0.57397000
     0.83291000     0.99996000     0.57397000
     0.83291000     0.49996000     0.57397000
     0.33328000     0.00000000     0.64585000
     0.33328000     0.50000000     0.64585000
     0.83328000     0.00000000     0.64585000
     0.83328000     0.50000000     0.64585000
     0.33336000     0.33336000     0.71071000
     0.33336000     0.83336000     0.71071000
     0.83336000     0.33336000     0.71071000
     0.83336000     0.83336000     0.71071000
     0.33432000     0.33421000     0.50940000
     0.33432000     0.83421000     0.50940000
     0.83432000     0.33421000     0.50940000
     0.83432000     0.83421000     0.50940000
     0.00004000     0.33295000     0.57397000
     0.00004000     0.83295000     0.57397000
     0.50004000     0.33295000     0.57397000
     0.50004000     0.83295000     0.57397000
     0.00001000     0.33329000     0.64585000
     0.00001000     0.83329000     0.64585000
     0.50001000     0.33329000     0.64585000
     0.50001000     0.83329000     0.64585000
     0.00000000     0.16664000     0.71071000
     0.00000000     0.66664000     0.71071000
     0.50000000     0.16664000     0.71071000
     0.50000000     0.66664000     0.71071000
     0.49989000     0.16568000     0.50940000
     0.49989000     0.66568000     0.50940000
     0.99989000     0.16568000     0.50940000
     0.99989000     0.66568000     0.50940000
     0.00000000     0.00000000     0.34945000
     0.00000000     0.50000000     0.34945000
     0.50000000     0.00000000     0.34945000
     0.50000000     0.50000000     0.34945000
     0.00000000     0.00000000     0.44109000
     0.00000000     0.50000000     0.44109000
     0.50000000     0.00000000     0.44109000
     0.50000000     0.50000000     0.44109000
     0.33333000     0.16667000     0.39481000
     0.33333000     0.66667000     0.39481000
     0.83333000     0.16667000     0.39481000
     0.83333000     0.66667000     0.39481000
     0.16667000     0.33333000     0.39465000
     0.16667000     0.83333000     0.39465000
     0.66667000     0.33333000     0.39465000
     0.66667000     0.83333000     0.39465000
     0.31847000     0.32466000     0.36220000
     0.31847000     0.82466000     0.36220000
     0.81847000     0.32466000     0.36220000
     0.81847000     0.82466000     0.36220000
     0.17534000     0.49380000     0.36220000
     0.17534000     0.99380000     0.36220000
     0.67534000     0.49380000     0.36220000
     0.67534000     0.99380000     0.36220000
     0.00620000     0.18154000     0.36220000
     0.00620000     0.68154000     0.36220000
     0.50620000     0.18154000     0.36220000
     0.50620000     0.68154000     0.36220000
     0.00625000     0.32481000     0.42718000
     0.00625000     0.82481000     0.42718000
     0.50625000     0.32481000     0.42718000
     0.50625000     0.82481000     0.42718000
     0.17519000     0.18145000     0.42718000
     0.17519000     0.68145000     0.42718000
     0.67519000     0.18145000     0.42718000
     0.67519000     0.68145000     0.42718000
     0.31856000     0.99375000     0.42718000
     0.81856000     0.49375000     0.42718000
     0.81856000     0.99375000     0.42718000
