Global Parameters
ISTART =  0            (Read existing wavefunction; if there)
ISPIN =  2           (Spin polarised DFT)
ICHARG =  1         (Non-self-consistent: GGA/LDA band structures)
LREAL  = Auto          (Projection operators: automatic)
ENCUT  =  520        (Cut-off energy for plane wave basis set, in eV)
PREC   =  Medium       (Precision level)
LWAVE  = .FALSE.        (Write WAVECAR or not)
LCHARG = .FALSE.        (Write CHGCAR or not)
ADDGRID= .TRUE.        (Increase grid; helps GGA convergence)
# LVTOT  = .TRUE.      (Write total electrostatic potential into LOCPOT or not)
# LVHAR  = .TRUE.      (Write ionic + Hartree electrostatic potential into LOCPOT or not)
# NELECT =             (No. of electrons: charged cells; be careful)
# LPLANE = .TRUE.      (Real space distribution; supercells)
NPAR   = 2           (Max is no. nodes; don't set for hybrids)
NWRITE = 1           (Medium-level output)
KPAR   = 1           (Divides k-grid into separate groups)
# NGX    = 500         (FFT grid mesh density for nice charge/potential plots)
# NGY    = 500         (FFT grid mesh density for nice charge/potential plots)
# NGZ    = 500         (FFT grid mesh density for nice charge/potential plots)


Electronic Relaxation
ISMEAR =  0
SIGMA  =  0.1
EDIFF  =  1E-06
 
Molecular Dynamics
IBRION =  0            (Activate MD)
NSW    =  5000          (Max electronic SCF steps)
EDIFFG = -1E-02        (Ionic convergence; eV/AA)
POTIM  =  1            (Timestep in fs)
SMASS  =  -1            (MD Algorithm: -3-microcanonical ensemble; 0-canonical ensemble)
TEBEG  =     300     (Start temperature K)
TEEND  =     300     (Start temperature K)
! MDALGO =  1          (Andersen Thermostat)
ISYM   =  0          (Symmetry: 0=none; 2=GGA; 3=hybrids)
NBLOCK  =  4
NELM  =  120
NELMIN  =  4
IVDW   =  11

DFT+U Calculation
LDAU   = .TRUE.        (Activate DFT+U)
LDATYPE=  2            (Dudarev; only U-J matters)
LDAUL  =  2 -1 -1 2 -1 -1        (Orbitals for each species)
LDAUU  =  3.5 0.0 0.0 4.6 0.0 0.0         (U for each species)
LDAUJ  =  0.0 0.0 0.0 0.0 0.0 0.0         (J for each species)
LMAXMIX=  4            (Mixing cut-off; 4-d, 6-f) 
