This file is generated by VASPKIT code  
   1.00000000000000     
    10.1502224942531800    0.0000083212696692    0.0000001729168570
    -5.0751045069082892    8.7903635764763859   -0.0000064996419702
     0.0000005866396548   -0.0000255226975492   34.9383992074193728
   Mo   N    Si   Ni   O    Te
    12    48    24    12    24     4
Direct
  0.1662093371361413  0.9953943729606854  0.6106437140579676
  0.1683496393233740  0.4952587910559669  0.6105581096879752
  0.6680992270133865  0.9951215935815729  0.6108405177905805
  0.6676262371302373  0.4942079394096317  0.6104853136842785
  0.3307355122804267  0.3263663302585147  0.6115250335414064
  0.3306444153196208  0.8262416328962551  0.6106714031672383
  0.8302919661397233  0.3269725893321149  0.6106837155913146
  0.8307698487458500  0.8273483806810729  0.6109519938077052
  0.9980662259348068  0.1618430362045665  0.6105857814722186
  0.9971518469251364  0.6617361391549110  0.6105776758498950
  0.4991178786788726  0.1635338287704086  0.6108275176573233
  0.4980335940170733  0.6619413533511475  0.6107961307251852
  0.1682888797945228  0.1668238731507713  0.5749220747306937
  0.1711146559012492  0.6703868921237974  0.5743111598523266
  0.6699567902285395  0.1681173815870054  0.5741513802239221
  0.6684526402866086  0.6674044553107705  0.5746535920385319
  0.1659513282141739  0.1589482814507596  0.6472289789447936
  0.1624914092271574  0.6591537951006100  0.6474194703330945
  0.6670684880053940  0.1629655400182506  0.6478866949382281
  0.6699109833548219  0.6628693120749773  0.6476329880162702
  0.1654256254219188  0.9917476980562693  0.7134319176815003
  0.1668246473831017  0.4909644678376539  0.7133456670070795
  0.6689500816451522  0.9933941911506560  0.7131726543172925
  0.6673542163346253  0.4913201277981353  0.7136608508102197
  0.1641124683703422  0.9928577043181298  0.5085550070133266
  0.1601273742338208  0.4912384697355621  0.5082200416524769
  0.6595780716782215  0.9901471020548654  0.5068015381419717
  0.6591163000801569  0.4896947172117542  0.5078837478873335
  0.3274910685753803  0.9982831227372362  0.5742116321836018
  0.3257214782887135  0.4990874532533172  0.5734722670918468
  0.8262556253012924  0.0010584774983511  0.5736635003632888
  0.8258725228987661  0.4969241740843192  0.5736543132168802
  0.3337630520957776  0.9916989769895168  0.6477102347929706
  0.3309310762612336  0.4899021115752133  0.6474807841939587
  0.8330019817358876  0.9904262987902281  0.6475471428032082
  0.8339185985604648  0.4899362248652843  0.6475324809912518
  0.3345965306233721  0.3275673320876086  0.7131939280849416
  0.3365851880096853  0.8282910929332959  0.7133567030572581
  0.8365574130497436  0.3274391149480496  0.7123604649205857
  0.8357592595251561  0.8288861186170124  0.7133157416042114
  0.3314432498258033  0.3282787701529178  0.5092900394147548
  0.3304137744554717  0.8270116677555386  0.5077721936410902
  0.8287623739762930  0.3282347264677722  0.5087231821493005
  0.8321386927697202  0.8293162844986057  0.5091207905167625
  0.9940037498622489  0.3222497714592172  0.5741551242516046
  0.9960616602132305  0.8205798878740121  0.5741193044558013
  0.4973466646736860  0.3210745761594865  0.5741255502434727
  0.4967790769703792  0.8254933120055334  0.5734421136528934
  0.9969573503210817  0.3264182496970287  0.6472626936516341
  0.9991245475837874  0.8258528139272181  0.6472186562001899
  0.5013256317269819  0.3257778354464420  0.6475807898746769
  0.4995857872826924  0.8284972253787215  0.6471633764930884
  0.0005643453878416  0.1581796394376058  0.7131937067849650
  0.9997672519996922  0.6587528184778814  0.7122868828562650
  0.5006614417484121  0.1575946468778421  0.7121898743009601
  0.5036233866986828  0.6579171427775499  0.7131150495484837
  0.5008765641047257  0.1567642338095275  0.5080247120335063
  0.5019601550939535  0.6609500076567039  0.5082502149210313
  0.0014722823767890  0.1596094909356552  0.5072770221946509
  0.0027115899337017  0.6592735323956365  0.5071406452332973
  0.1667809356927521  0.1547065730457916  0.6982702271067055
  0.1668788440899180  0.6571361710144562  0.6979614426727413
  0.6683426171155615  0.1574570329206090  0.6982317803908152
  0.6698386284516568  0.6563262040236661  0.6973980186372222
  0.1686825147543109  0.1612534011963538  0.5245199493657179
  0.1693820315215865  0.6629225628921186  0.5245300780693842
  0.6666496935881112  0.1594420368013821  0.5238822624871710
  0.6677769685935430  0.6612174805150616  0.5250781208937947
  0.3345715323952222  0.9955177981056196  0.6981269954008303
  0.3349628578076598  0.4947088162212142  0.6973329027322390
  0.8367306712359731  0.9937852402981984  0.6981712510504438
  0.8367282735314141  0.4968846790708535  0.6974495186489162
  0.3329115790381013  0.9932888002275763  0.5233459084925568
  0.3327209143465020  0.4948105151200143  0.5224159187552136
  0.8324042318131127  0.9942107064760553  0.5239796291493218
  0.8312467771556534  0.4952637539569539  0.5230700418623312
  0.9992247014206072  0.3246966467356472  0.6976783657822099
  0.9989536367996240  0.8249932927996720  0.6968611105549732
  0.5016966183264547  0.3251400306809302  0.6971409056666285
  0.5015606299713777  0.8262710898204570  0.6975480262748568
  0.9904229339487891  0.3237528602789374  0.5233113326403052
  0.9951374775107393  0.8265682118572645  0.5233066258777892
  0.4932888752327422  0.3224947506996355  0.5231867274284688
  0.4927654763706013  0.8245442582201127  0.5222412095254796
  0.9980615744323362  0.0132614443262739  0.3518206484488895
  0.0015474650633924  0.5153493648919526  0.3494756703244574
  0.4967736135927196  0.0109529372259382  0.3476706594391118
  0.4967376661043909  0.4994478973079775  0.3501050749913783
  0.0043554338043055  0.0122846772061603  0.4436581512125347
  0.0135095435888381  0.5172161798728184  0.4439420226557168
  0.5049650218276897  0.0055545202946813  0.4455104771343530
  0.5058874531732649  0.5138491726751728  0.4459466099572332
  0.3315372299392751  0.1767014619790859  0.3918787508115813
  0.3263863838520852  0.6680512008579428  0.3893057222791622
  0.8310985010886198  0.1740318944832942  0.3885251013206734
  0.8352763503354276  0.6764336941127054  0.3905541556626457
  0.3150207712340578  0.3238067554601465  0.3619215558144417
  0.3132500414485812  0.8344354393734535  0.3567898714623440
  0.8117479127870808  0.3260836264060111  0.3594827394048388
  0.8126585967288256  0.8284242904136676  0.3573271485288284
  0.1662881324061956  0.5001882289328093  0.3586945380440880
  0.1748443502294311  0.0123521756084528  0.3621585680672260
  0.6792638101970611  0.5083122705669119  0.3611349151132200
  0.6800364597126755  0.0062034312910794  0.3556452542111987
  0.0044886501418228  0.1905462021035533  0.3594324254603479
  0.0014510702433182  0.6893210540792377  0.3582791881646646
  0.5076206015165968  0.1975947259253950  0.3590605335706084
  0.5096802432066170  0.6899854933652665  0.3575297416153850
  0.0123895944454386  0.3441778943604643  0.4235081041051212
  0.0131435068467057  0.8490472606585898  0.4235432415525654
  0.5082270996043273  0.3578099441576241  0.4222416452984461
  0.5071940541358050  0.8375113610915432  0.4204131029503856
  0.1805082045728634  0.1928234590863170  0.4296850359445247
  0.1761218418304956  0.6874353647316193  0.4231939405788814
  0.6696058765106884  0.1785285605008486  0.4208793979657358
  0.6827596044928401  0.6920133754791213  0.4267741806373148
  0.3248052107427643  0.5078367454773983  0.4279239439348790
  0.3237761775982252  0.0076332614407624  0.4261657240880276
  0.8247001244424292  0.5061904937692959  0.4262831433374949
  0.8347326077151809  0.0097173867868227  0.4231993173154987
  0.1620266356664511  0.3422279921832860  0.3949448669657944
  0.1737201822639216  0.8399858211149479  0.3928351482917698
  0.6699399219025147  0.3379337435320578  0.3957095704160948
  0.6696772134865608  0.8443254445254267  0.3903579057033909
 
 -0.29099952E-03 -0.66346881E-03  0.93735395E-03
 -0.95505883E-04  0.21662251E-03  0.32712233E-03
 -0.64493228E-03  0.28234060E-03  0.86407634E-03
 -0.29962320E-03 -0.82225795E-03  0.14577920E-02
  0.57112612E-03  0.21844616E-03  0.89037983E-03
  0.25085719E-03 -0.41503785E-03  0.12642271E-02
  0.23729237E-03 -0.81495841E-04  0.80973690E-03
  0.48190444E-03  0.23104123E-03  0.62036308E-03
  0.27679535E-04 -0.30272353E-03  0.20454722E-02
  0.54599742E-03  0.38868479E-03  0.13311607E-02
  0.10102052E-02 -0.35298735E-04  0.71122576E-03
 -0.82496117E-03 -0.45871935E-03  0.14121142E-02
  0.47742629E-03  0.79066707E-03  0.24811430E-02
  0.20402723E-02 -0.12209409E-02  0.22502713E-02
  0.65089241E-04 -0.11905396E-02  0.13018603E-02
  0.18070601E-02  0.94392199E-03 -0.30490115E-04
  0.44584916E-02  0.72138762E-02 -0.27050903E-02
  0.29878681E-02  0.89899900E-02 -0.37680883E-02
  0.33944975E-02  0.87818137E-02 -0.53451551E-02
  0.50994699E-02  0.63838146E-02 -0.46851765E-02
  0.21818796E-02 -0.90639401E-04  0.27616250E-02
  0.11108216E-02 -0.17286151E-03  0.61113708E-02
  0.13219827E-04 -0.14559420E-02  0.80940389E-02
 -0.99200619E-03 -0.51673542E-03  0.41780095E-02
 -0.11201201E-03  0.36386552E-02 -0.34724969E-02
  0.10359046E-02  0.27763712E-02 -0.55780261E-02
  0.59533389E-03  0.81261295E-03 -0.33450442E-02
  0.12622187E-02  0.15900716E-02 -0.22473064E-02
  0.59961895E-02 -0.33084387E-02  0.26195663E-02
  0.48157706E-02 -0.10840934E-03  0.23100628E-02
  0.73792085E-02 -0.10879621E-02  0.23844924E-03
  0.60592529E-02 -0.18472198E-02  0.23814337E-02
 -0.85788475E-02  0.42135123E-02 -0.39210070E-02
 -0.50305885E-02  0.31938072E-02 -0.51860417E-02
 -0.36693048E-02  0.34593144E-02 -0.75532668E-02
 -0.64979581E-02  0.33063116E-02 -0.71376364E-02
 -0.41922751E-02  0.10759336E-03  0.19702698E-02
 -0.38550923E-02 -0.14751495E-02  0.54535999E-02
 -0.21149059E-02 -0.96645432E-03  0.86197584E-02
 -0.27735178E-02  0.68999937E-03  0.69358705E-02
 -0.75912578E-03 -0.11989203E-02 -0.50767018E-02
  0.73721270E-03 -0.60851389E-03 -0.35844421E-02
 -0.44594218E-03 -0.27562391E-03 -0.54632538E-02
 -0.89616637E-03 -0.19974715E-03 -0.33809181E-02
 -0.10722296E-02  0.32447686E-02  0.71814491E-03
  0.71773532E-03  0.36720432E-02  0.20141627E-02
 -0.23182636E-02  0.45400581E-02  0.24042558E-02
 -0.91869691E-03  0.18277099E-02  0.29980853E-03
  0.41570090E-02 -0.56601065E-02 -0.61432440E-02
  0.42685848E-02 -0.55291916E-02 -0.46802674E-02
  0.40639475E-02 -0.40292039E-02 -0.54818854E-02
  0.40575434E-02 -0.45443707E-02 -0.25219240E-02
 -0.22352314E-03  0.43336433E-02  0.59982727E-02
 -0.75881941E-03  0.14656310E-02  0.60215680E-02
 -0.48645377E-02  0.29951121E-03  0.46217615E-02
 -0.33584706E-02  0.18233124E-02  0.42628120E-02
 -0.35009210E-02  0.29692519E-02 -0.78421244E-03
 -0.13147592E-02 -0.34588442E-02 -0.49601950E-02
 -0.11967884E-02 -0.59329946E-03 -0.78078264E-02
 -0.48862596E-02 -0.13070291E-02 -0.11059450E-02
  0.10749653E-02 -0.15327545E-02 -0.18520719E-02
  0.20147691E-02 -0.30151118E-02 -0.49630646E-02
 -0.11638293E-03 -0.30172377E-02 -0.57599872E-02
  0.23926565E-04 -0.19541090E-02 -0.39704402E-02
 -0.68414246E-03 -0.66875282E-03  0.14243085E-02
 -0.17740863E-03 -0.30882696E-02  0.11675794E-02
 -0.12809778E-02 -0.14719657E-02  0.50677167E-03
 -0.10071128E-02 -0.27288390E-02  0.83772308E-03
  0.11122304E-02  0.25081318E-02 -0.34684739E-02
  0.39206404E-03  0.20822113E-02 -0.20076366E-02
  0.29720938E-02  0.21112513E-02 -0.26296825E-02
  0.33609513E-02  0.37234839E-02 -0.22829101E-02
  0.27136172E-03  0.38432963E-02  0.59323780E-04
 -0.55047768E-03  0.35334478E-03  0.35865599E-02
  0.34071404E-03  0.23353814E-02  0.20347078E-02
 -0.10139784E-02  0.22523561E-02 -0.87345260E-03
  0.46618518E-03  0.18133228E-02 -0.28673447E-02
 -0.35410709E-03  0.15697145E-02 -0.18413400E-02
 -0.10170897E-02 -0.61284253E-04  0.66221019E-03
 -0.12983809E-02 -0.89993550E-03 -0.25610675E-02
  0.12512702E-03  0.14968996E-02  0.81218074E-03
 -0.52522463E-03  0.73083060E-03 -0.22541687E-03
 -0.30621027E-04  0.14687887E-02 -0.75434818E-03
 -0.74544236E-03  0.56432880E-03  0.45758723E-03
  0.83957405E-03  0.21763956E-02 -0.31140294E-02
 -0.15882318E-02  0.16125289E-02 -0.99426760E-03
  0.57566703E-03 -0.81631943E-03 -0.22975190E-02
  0.54362312E-03  0.25867262E-02 -0.25521577E-02
 -0.19038772E-02 -0.21868691E-02 -0.29573102E-02
 -0.32198355E-04  0.63581544E-03 -0.24156346E-02
 -0.43995690E-03 -0.16004558E-02 -0.54846627E-02
 -0.20355039E-02 -0.19112359E-02 -0.30486369E-02
 -0.14126448E-02 -0.21790415E-03 -0.91330380E-02
  0.14507892E-02 -0.65844031E-03 -0.52070662E-02
  0.62350400E-03 -0.27211658E-02 -0.50865592E-02
 -0.17444118E-02  0.20267083E-02 -0.59892897E-02
 -0.22474854E-03 -0.15183162E-02  0.27470631E-02
  0.46374408E-02  0.42888562E-02  0.57103470E-02
 -0.34349279E-02 -0.79160029E-03 -0.10552190E-03
 -0.48534599E-02 -0.29993431E-02  0.49816352E-02
  0.58526421E-02 -0.28387120E-02 -0.69227096E-02
  0.28352070E-02 -0.18067701E-02  0.70340076E-02
 -0.53754032E-03 -0.13318981E-04  0.26625360E-02
  0.17029392E-02  0.69868222E-02  0.61089343E-02
  0.12689664E-03 -0.83294266E-02  0.65219347E-02
 -0.89904227E-03 -0.35111141E-02  0.44244711E-02
 -0.77039139E-02  0.17004378E-02 -0.26232535E-02
  0.32559125E-02 -0.59557549E-02  0.17878364E-02
 -0.62371310E-02 -0.60672190E-03  0.53842644E-02
 -0.11346493E-02 -0.11348250E-02 -0.33852790E-02
 -0.47255330E-02  0.11965495E-02 -0.28100063E-02
 -0.47686426E-02  0.28521644E-02 -0.48732363E-02
  0.94031309E-02  0.10967435E-03  0.14678384E-02
  0.35841807E-02  0.77718240E-02  0.24992109E-02
  0.52551361E-02  0.78622162E-02  0.33714845E-02
  0.41980110E-02  0.88234491E-04 -0.23929143E-03
  0.23057388E-03  0.27422288E-02 -0.27949292E-02
  0.35815967E-03  0.56657509E-02  0.54111712E-02
  0.72700445E-02  0.56677482E-02  0.20430901E-02
  0.40092341E-02 -0.56464990E-02 -0.43792080E-02
 -0.45536969E-04  0.11870912E-02  0.40340876E-02
 -0.20284929E-02 -0.21456507E-02  0.24245464E-02
  0.10950835E-02 -0.32747470E-02  0.42342043E-02
 -0.90153161E-03 -0.19311975E-02  0.55197743E-02
 
           1
   1.00000000000000     
  0.10000000E+01  0.00000000E+00  0.00000000E+00  0.00000000E+00
  0.16614293E+00  0.99531890E+00  0.61067054E+00
  0.16835255E+00  0.49528343E+00  0.61056747E+00
  0.66805175E+00  0.99515371E+00  0.61086525E+00
  0.66754995E+00  0.49411440E+00  0.61052704E+00
  0.33080420E+00  0.32639118E+00  0.61155052E+00
  0.33064552E+00  0.82619442E+00  0.61070759E+00
  0.83031071E+00  0.32696332E+00  0.61070689E+00
  0.83083047E+00  0.82737466E+00  0.61096975E+00
  0.99805173E+00  0.16180860E+00  0.61064433E+00
  0.99722775E+00  0.66178036E+00  0.61061578E+00
  0.49921540E+00  0.16352981E+00  0.61084787E+00
  0.49792623E+00  0.66188917E+00  0.61083655E+00
  0.16838089E+00  0.16691382E+00  0.57499309E+00
  0.17124622E+00  0.67024800E+00  0.57437557E+00
  0.66989548E+00  0.16798194E+00  0.57418864E+00
  0.66868436E+00  0.66751184E+00  0.57465272E+00
  0.16680091E+00  0.15976894E+00  0.64715155E+00
  0.16329713E+00  0.66017650E+00  0.64731162E+00
  0.66790243E+00  0.16396457E+00  0.64773371E+00
  0.67077650E+00  0.66359554E+00  0.64749889E+00
  0.16563543E+00  0.99173739E+00  0.71351096E+00
  0.16692425E+00  0.49094480E+00  0.71352059E+00
  0.66886857E+00  0.99322856E+00  0.71340432E+00
  0.66722709E+00  0.49126134E+00  0.71378043E+00
  0.16430840E+00  0.99327164E+00  0.50845562E+00
  0.16038735E+00  0.49155431E+00  0.50806039E+00
  0.65968295E+00  0.99023955E+00  0.50670580E+00
  0.65933110E+00  0.48987560E+00  0.50781943E+00
  0.32789363E+00  0.99790675E+00  0.57428661E+00
  0.32618976E+00  0.49907512E+00  0.57353839E+00
  0.82692074E+00  0.93470931E-03  0.57367033E+00
  0.82636441E+00  0.49671403E+00  0.57372247E+00
  0.33315753E+00  0.99217831E+00  0.64759801E+00
  0.33061713E+00  0.49026544E+00  0.64733235E+00
  0.83283725E+00  0.99081983E+00  0.64733095E+00
  0.83346648E+00  0.49031235E+00  0.64732819E+00
  0.33418963E+00  0.32757957E+00  0.71325032E+00
  0.33612148E+00  0.82812328E+00  0.71351279E+00
  0.83629408E+00  0.32732917E+00  0.71260718E+00
  0.83552526E+00  0.82896461E+00  0.71351426E+00
  0.33130027E+00  0.32814238E+00  0.50914474E+00
  0.33045179E+00  0.82694244E+00  0.50766960E+00
  0.82870276E+00  0.32820337E+00  0.50856681E+00
  0.83203904E+00  0.82929356E+00  0.50902402E+00
  0.99408268E+00  0.32261890E+00  0.57417568E+00
  0.99634124E+00  0.82099762E+00  0.57417695E+00
  0.49737651E+00  0.32159106E+00  0.57419436E+00
  0.49679253E+00  0.82570123E+00  0.57345069E+00
  0.99704495E+00  0.32577435E+00  0.64708686E+00
  0.99923059E+00  0.82522381E+00  0.64708470E+00
  0.50149683E+00  0.32531947E+00  0.64742389E+00
  0.49972705E+00  0.82798025E+00  0.64709119E+00
  0.78882336E-03  0.15867264E+00  0.71336539E+00
  0.99977586E+00  0.65891955E+00  0.71245923E+00
  0.50019922E+00  0.15762872E+00  0.71232216E+00
  0.50339622E+00  0.65812457E+00  0.71323706E+00
  0.50070055E+00  0.15710202E+00  0.50800227E+00
  0.50163388E+00  0.66055653E+00  0.50810825E+00
  0.13206274E-02  0.15954200E+00  0.50705355E+00
  0.21558515E-02  0.65912484E+00  0.50710899E+00
  0.16679966E+00  0.15453221E+00  0.69821722E+00
  0.16690584E+00  0.65679317E+00  0.69781939E+00
  0.66815953E+00  0.15711379E+00  0.69806692E+00
  0.66972984E+00  0.65610390E+00  0.69728438E+00
  0.16857707E+00  0.16117732E+00  0.52456072E+00
  0.16918889E+00  0.66257124E+00  0.52456350E+00
  0.66643977E+00  0.15927458E+00  0.52389677E+00
  0.66752253E+00  0.66090705E+00  0.52510210E+00
  0.33482377E+00  0.99580313E+00  0.69802772E+00
  0.33511992E+00  0.49494569E+00  0.69727544E+00
  0.83714357E+00  0.99402542E+00  0.69809598E+00
  0.83727119E+00  0.49730827E+00  0.69738418E+00
  0.33315692E+00  0.99372602E+00  0.52334761E+00
  0.33268678E+00  0.49485071E+00  0.52251857E+00
  0.83257064E+00  0.99447638E+00  0.52403787E+00
  0.83127499E+00  0.49551998E+00  0.52304504E+00
  0.99937377E+00  0.32490293E+00  0.69759630E+00
  0.99900804E+00  0.82517186E+00  0.69680841E+00
  0.50159293E+00  0.32513306E+00  0.69715986E+00
  0.50138152E+00  0.82616871E+00  0.69747472E+00
  0.99052041E+00  0.32392315E+00  0.52333458E+00
  0.99512730E+00  0.82665135E+00  0.52330017E+00
  0.49336940E+00  0.32266184E+00  0.52316514E+00
  0.49272413E+00  0.82460846E+00  0.52225431E+00
  0.99826808E+00  0.13509033E-01  0.35173152E+00
  0.14827137E-02  0.51553281E+00  0.34944721E+00
  0.49678390E+00  0.10860072E-01  0.34760490E+00
  0.49693836E+00  0.49974217E+00  0.35003203E+00
  0.40434739E-02  0.12035897E-01  0.44357351E+00
  0.13542537E-01  0.51728851E+00  0.44387288E+00
  0.50483064E+00  0.53724506E-02  0.44535350E+00
  0.50557820E+00  0.51363175E+00  0.44585935E+00
  0.33138566E+00  0.17667667E+00  0.39161735E+00
  0.32649186E+00  0.66797630E+00  0.38915669E+00
  0.83100515E+00  0.17372233E+00  0.38837951E+00
  0.83521977E+00  0.67666425E+00  0.39038273E+00
  0.31491227E+00  0.32363403E+00  0.36200018E+00
  0.31395087E+00  0.83492334E+00  0.35695331E+00
  0.81136448E+00  0.32599357E+00  0.35947972E+00
  0.81200983E+00  0.82808308E+00  0.35746973E+00
  0.16670327E+00  0.49986529E+00  0.35849640E+00
  0.17502091E+00  0.12146636E-01  0.36235989E+00
  0.67921009E+00  0.50831076E+00  0.36121112E+00
  0.68060165E+00  0.69982587E-02  0.35582010E+00
  0.40273714E-02  0.18959864E+00  0.35961909E+00
  0.11627834E-02  0.68892163E+00  0.35840582E+00
  0.50695833E+00  0.19778817E+00  0.35898545E+00
  0.50966225E+00  0.68930796E+00  0.35758091E+00
  0.11740602E-01  0.34410887E+00  0.42366221E+00
  0.12967172E-01  0.84891816E+00  0.42344635E+00
  0.50782960E+00  0.35794606E+00  0.42216122E+00
  0.50688648E+00  0.83783583E+00  0.42027362E+00
  0.18144084E+00  0.19283593E+00  0.42972705E+00
  0.17691702E+00  0.68831949E+00  0.42326547E+00
  0.67057082E+00  0.17942297E+00  0.42097590E+00
  0.68317821E+00  0.69202341E+00  0.42676733E+00
  0.32498391E+00  0.50814870E+00  0.42784395E+00
  0.32413373E+00  0.82778027E-02  0.42632060E+00
  0.82573875E+00  0.50683526E+00  0.42634162E+00
  0.83480642E+00  0.90750353E-02  0.42307398E+00
  0.16208967E+00  0.34236304E+00  0.39506033E+00
  0.17339829E+00  0.83974173E+00  0.39290454E+00
  0.66986154E+00  0.33756121E+00  0.39583076E+00
  0.66947855E+00  0.84410575E+00  0.39051589E+00
 -0.63209157E-04 -0.72587644E-04  0.26490486E-04
  0.11293108E-04  0.26591044E-04  0.91487590E-05
 -0.40633691E-04  0.31724991E-04  0.24644544E-04
 -0.71142143E-04 -0.93560357E-04  0.41096091E-04
  0.64407283E-04  0.20951155E-04  0.26626838E-04
 -0.38618457E-05 -0.53832990E-04  0.35713671E-04
  0.14380961E-04 -0.12330119E-04  0.22993808E-04
  0.56392859E-04  0.23180091E-04  0.18132138E-04
 -0.14108912E-04 -0.31861628E-04  0.58011055E-04
  0.74395205E-04  0.48430749E-04  0.37897659E-04
  0.97731057E-04  0.28439251E-05  0.20098961E-04
 -0.10756366E-03 -0.49905137E-04  0.40616017E-04
  0.11028517E-03  0.11907466E-03  0.73513751E-04
  0.16383246E-03 -0.94269468E-04  0.62882699E-04
 -0.33595773E-04 -0.96122985E-04  0.35467991E-04
  0.25167589E-03  0.14097850E-03 -0.34413956E-05
  0.85551971E-03  0.81888168E-03 -0.79187236E-04
  0.78912049E-03  0.10171183E-02 -0.10392817E-03
  0.83782578E-03  0.10106439E-02 -0.14491113E-03
  0.88120145E-03  0.74147132E-03 -0.12662168E-03
  0.20159484E-03  0.69373333E-05  0.83942849E-04
  0.95774992E-04 -0.29974495E-04  0.18118077E-03
 -0.79845765E-04 -0.15473634E-03  0.23630547E-03
 -0.14117029E-03 -0.61120017E-04  0.12706294E-03
  0.19033728E-03  0.40280679E-03 -0.10613410E-03
  0.24559013E-03  0.29540222E-03 -0.16596825E-03
  0.78384172E-04  0.65692710E-04 -0.10441586E-03
  0.19062893E-03  0.14898396E-03 -0.72714823E-04
  0.37286470E-03 -0.36069435E-03  0.76933366E-04
  0.42855829E-03  0.55364849E-05  0.63821776E-04
  0.63273226E-03 -0.98256885E-04  0.27075788E-05
  0.45562210E-03 -0.20334416E-03  0.67848424E-04
 -0.59622129E-03  0.46585968E-03 -0.10584701E-03
 -0.32243470E-03  0.33759644E-03 -0.14265328E-03
 -0.16614790E-03  0.37217898E-03 -0.21255917E-03
 -0.44498821E-03  0.35135140E-03 -0.19632427E-03
 -0.40503457E-03  0.35512978E-04  0.64129517E-04
 -0.44024413E-03 -0.14586817E-03  0.16222680E-03
 -0.24064923E-03 -0.10554710E-03  0.24783552E-03
 -0.22553185E-03  0.11356894E-03  0.20413918E-03
 -0.15070666E-03 -0.12767551E-03 -0.14704288E-03
  0.28990046E-04 -0.76533736E-04 -0.10504641E-03
 -0.65264391E-04 -0.22050921E-04 -0.15702350E-03
 -0.94381450E-04 -0.69586810E-05 -0.10053525E-03
  0.63437073E-04  0.34049704E-03  0.21423675E-04
  0.27399500E-03  0.37996018E-03  0.58723024E-04
  0.29836370E-04  0.48520961E-03  0.69024285E-04
  0.87209941E-05  0.19420587E-03  0.59492789E-05
  0.75984039E-04 -0.64698195E-03 -0.17116531E-03
  0.10914782E-03 -0.63734865E-03 -0.12773181E-03
  0.17689861E-03 -0.47144895E-03 -0.14914707E-03
  0.14416127E-03 -0.51059627E-03 -0.69553053E-04
  0.21295110E-03  0.48082214E-03  0.17663406E-03
 -0.10064021E-04  0.14372053E-03  0.17343980E-03
 -0.47393032E-03  0.11856803E-04  0.13198481E-03
 -0.21769050E-03  0.19236485E-03  0.12955049E-03
 -0.15295255E-03  0.33480732E-03 -0.25340738E-04
 -0.30417914E-03 -0.37822048E-03 -0.14528918E-03
 -0.12351944E-03 -0.59235557E-04 -0.23397535E-03
 -0.52670693E-03 -0.14923817E-03 -0.40231153E-04
  0.12818435E-04 -0.20291513E-03 -0.53159690E-04
  0.18899240E-04 -0.35534069E-03 -0.14327237E-03
 -0.18675287E-03 -0.35724856E-03 -0.16524446E-03
 -0.10458580E-03 -0.23833180E-03 -0.11788484E-03
 -0.90321692E-04 -0.73155134E-04  0.43260053E-04
 -0.17089457E-03 -0.33330326E-03  0.36100660E-04
 -0.20484789E-03 -0.16478346E-03  0.14995898E-04
 -0.24599062E-03 -0.30604340E-03  0.28722120E-04
  0.25885013E-03  0.30399026E-03 -0.99814380E-04
  0.15721970E-03  0.24686134E-03 -0.61939928E-04
  0.42495124E-03  0.24560779E-03 -0.75505555E-04
  0.55843927E-03  0.45133733E-03 -0.67986767E-04
  0.25984174E-03  0.43625473E-03  0.77760604E-06
 -0.18673320E-04  0.40545366E-04  0.10105926E-03
  0.17461114E-03  0.25956215E-03  0.62836016E-04
  0.34920102E-04  0.25506469E-03 -0.23864772E-04
  0.14039778E-03  0.20376949E-03 -0.83344123E-04
  0.48994659E-04  0.17310789E-03 -0.57402262E-04
 -0.97169854E-04 -0.94350249E-05  0.13647578E-04
 -0.18162468E-03 -0.99558460E-04 -0.76106850E-04
  0.65983810E-04  0.16497047E-03  0.23293750E-04
 -0.30045699E-04  0.87199179E-04 -0.56163216E-05
  0.59452166E-04  0.15995427E-03 -0.22598736E-04
 -0.66523210E-04  0.60855443E-04  0.10239363E-04
  0.20809517E-03  0.25793396E-03 -0.87326018E-04
 -0.49993756E-04  0.19640302E-03 -0.26828306E-04
  0.39805176E-05 -0.98309875E-04 -0.65216155E-04
  0.19816846E-03  0.29228528E-03 -0.72617802E-04
 -0.31403834E-03 -0.25033824E-03 -0.83493731E-04
  0.43696605E-04  0.77231027E-04 -0.68377857E-04
 -0.12977979E-03 -0.18046648E-03 -0.15431434E-03
 -0.31196063E-03 -0.22932318E-03 -0.85542303E-04
 -0.15596088E-03 -0.25387125E-04 -0.26392672E-03
  0.92484050E-04 -0.80714710E-04 -0.14934270E-03
 -0.96746383E-04 -0.30781003E-03 -0.14683702E-03
 -0.55302804E-04  0.22849728E-03 -0.17331665E-03
 -0.84733627E-04 -0.20623688E-03  0.79631475E-04
  0.69421601E-03  0.50115355E-03  0.16097672E-03
 -0.40904969E-03 -0.13240625E-03 -0.42962958E-05
 -0.67281425E-03 -0.35609238E-03  0.14159608E-03
  0.37264163E-03 -0.30299528E-03 -0.20534649E-03
  0.17108389E-03 -0.16218570E-03  0.20070185E-03
 -0.55740608E-04  0.30310291E-04  0.73318419E-04
  0.58288157E-03  0.81925136E-03  0.16886919E-03
 -0.48634368E-03 -0.99362371E-03  0.18006758E-03
 -0.32627438E-03 -0.44773753E-03  0.11845385E-03
 -0.66583263E-03  0.19903250E-03 -0.81249156E-04
 -0.45783540E-05 -0.67161552E-03  0.45874485E-04
 -0.57514438E-03 -0.57596671E-04  0.14040461E-03
 -0.17415007E-03 -0.79175424E-04 -0.95390858E-04
 -0.40314653E-03  0.20932738E-03 -0.81054327E-04
 -0.29391249E-03  0.31765120E-03 -0.14566974E-03
  0.93892885E-03 -0.93801450E-05  0.48800506E-04
  0.77625356E-03  0.88242203E-03  0.66991877E-04
  0.97016430E-03  0.93769872E-03  0.78446189E-04
  0.42862180E-03 -0.14229835E-04 -0.12257936E-05
  0.20526278E-03  0.32258258E-03 -0.72667178E-04
  0.34469812E-03  0.66736197E-03  0.15545028E-03
  0.10233194E-02  0.65780165E-03  0.55306110E-04
  0.12361228E-03 -0.62707603E-03 -0.11974342E-03
  0.50098204E-04  0.13521125E-03  0.11706735E-03
 -0.31487772E-03 -0.25450761E-03  0.70286297E-04
 -0.74841535E-04 -0.38489952E-03  0.12476418E-03
 -0.19922256E-03 -0.21721711E-03  0.15749125E-03
  0.00000000E+00  0.00000000E+00  0.00000000E+00
  0.00000000E+00  0.00000000E+00  0.00000000E+00
  0.00000000E+00  0.00000000E+00  0.00000000E+00
  0.00000000E+00  0.00000000E+00  0.00000000E+00
  0.00000000E+00  0.00000000E+00  0.00000000E+00
  0.00000000E+00  0.00000000E+00  0.00000000E+00
  0.00000000E+00  0.00000000E+00  0.00000000E+00
  0.00000000E+00  0.00000000E+00  0.00000000E+00
  0.00000000E+00  0.00000000E+00  0.00000000E+00
  0.00000000E+00  0.00000000E+00  0.00000000E+00
  0.00000000E+00  0.00000000E+00  0.00000000E+00
  0.00000000E+00  0.00000000E+00  0.00000000E+00
  0.00000000E+00  0.00000000E+00  0.00000000E+00
  0.00000000E+00  0.00000000E+00  0.00000000E+00
  0.00000000E+00  0.00000000E+00  0.00000000E+00
  0.00000000E+00  0.00000000E+00  0.00000000E+00
  0.00000000E+00  0.00000000E+00  0.00000000E+00
  0.00000000E+00  0.00000000E+00  0.00000000E+00
  0.00000000E+00  0.00000000E+00  0.00000000E+00
  0.00000000E+00  0.00000000E+00  0.00000000E+00
  0.00000000E+00  0.00000000E+00  0.00000000E+00
  0.00000000E+00  0.00000000E+00  0.00000000E+00
  0.00000000E+00  0.00000000E+00  0.00000000E+00
  0.00000000E+00  0.00000000E+00  0.00000000E+00
  0.00000000E+00  0.00000000E+00  0.00000000E+00
  0.00000000E+00  0.00000000E+00  0.00000000E+00
  0.00000000E+00  0.00000000E+00  0.00000000E+00
  0.00000000E+00  0.00000000E+00  0.00000000E+00
  0.00000000E+00  0.00000000E+00  0.00000000E+00
  0.00000000E+00  0.00000000E+00  0.00000000E+00
  0.00000000E+00  0.00000000E+00  0.00000000E+00
  0.00000000E+00  0.00000000E+00  0.00000000E+00
  0.00000000E+00  0.00000000E+00  0.00000000E+00
  0.00000000E+00  0.00000000E+00  0.00000000E+00
  0.00000000E+00  0.00000000E+00  0.00000000E+00
  0.00000000E+00  0.00000000E+00  0.00000000E+00
  0.00000000E+00  0.00000000E+00  0.00000000E+00
  0.00000000E+00  0.00000000E+00  0.00000000E+00
  0.00000000E+00  0.00000000E+00  0.00000000E+00
  0.00000000E+00  0.00000000E+00  0.00000000E+00
  0.00000000E+00  0.00000000E+00  0.00000000E+00
  0.00000000E+00  0.00000000E+00  0.00000000E+00
  0.00000000E+00  0.00000000E+00  0.00000000E+00
  0.00000000E+00  0.00000000E+00  0.00000000E+00
  0.00000000E+00  0.00000000E+00  0.00000000E+00
  0.00000000E+00  0.00000000E+00  0.00000000E+00
  0.00000000E+00  0.00000000E+00  0.00000000E+00
  0.00000000E+00  0.00000000E+00  0.00000000E+00
  0.00000000E+00  0.00000000E+00  0.00000000E+00
  0.00000000E+00  0.00000000E+00  0.00000000E+00
  0.00000000E+00  0.00000000E+00  0.00000000E+00
  0.00000000E+00  0.00000000E+00  0.00000000E+00
  0.00000000E+00  0.00000000E+00  0.00000000E+00
  0.00000000E+00  0.00000000E+00  0.00000000E+00
  0.00000000E+00  0.00000000E+00  0.00000000E+00
  0.00000000E+00  0.00000000E+00  0.00000000E+00
  0.00000000E+00  0.00000000E+00  0.00000000E+00
  0.00000000E+00  0.00000000E+00  0.00000000E+00
  0.00000000E+00  0.00000000E+00  0.00000000E+00
  0.00000000E+00  0.00000000E+00  0.00000000E+00
  0.00000000E+00  0.00000000E+00  0.00000000E+00
  0.00000000E+00  0.00000000E+00  0.00000000E+00
  0.00000000E+00  0.00000000E+00  0.00000000E+00
  0.00000000E+00  0.00000000E+00  0.00000000E+00
  0.00000000E+00  0.00000000E+00  0.00000000E+00
  0.00000000E+00  0.00000000E+00  0.00000000E+00
  0.00000000E+00  0.00000000E+00  0.00000000E+00
  0.00000000E+00  0.00000000E+00  0.00000000E+00
  0.00000000E+00  0.00000000E+00  0.00000000E+00
  0.00000000E+00  0.00000000E+00  0.00000000E+00
  0.00000000E+00  0.00000000E+00  0.00000000E+00
  0.00000000E+00  0.00000000E+00  0.00000000E+00
  0.00000000E+00  0.00000000E+00  0.00000000E+00
  0.00000000E+00  0.00000000E+00  0.00000000E+00
  0.00000000E+00  0.00000000E+00  0.00000000E+00
  0.00000000E+00  0.00000000E+00  0.00000000E+00