This file is generated by VASPKIT code  
   1.00000000000000     
    10.1502224942531800    0.0000083212696692    0.0000001729168570
    -5.0751045069082892    8.7903635764763859   -0.0000064996419702
     0.0000005866396548   -0.0000255226975492   34.9383992074193728
   Mo   N    Si   Ni   O    Te
    12    48    24    12    24     4
Direct
  0.1666268638536437  0.0000030484948823  0.6099083447700480
  0.1666268638536437  0.5000030484948823  0.6099083447700480
  0.6666268638536437  0.0000030484948823  0.6099083447700480
  0.6666268638536437  0.5000030484948823  0.6099083447700480
  0.3333758776381543  0.3333729539317716  0.6099083454093943
  0.3333758776381543  0.8333729539317716  0.6099083454093943
  0.8333758776381543  0.3333729539317716  0.6099083454093943
  0.8333758776381543  0.8333729539317716  0.6099083454093943
  0.9999967623720707  0.1666239335362079  0.6099083464598110
  0.9999967623720707  0.6666239335362079  0.6099083464598110
  0.4999967623720707  0.1666239335362079  0.6099083464598110
  0.4999967623720707  0.6666239335362079  0.6099083464598110
  0.1670537734698883  0.1670939806763343  0.5739662410717017
  0.1670537734698883  0.6670939806763343  0.5739662410717017
  0.6670537734698883  0.1670939806763343  0.5739662410717017
  0.6670537734698883  0.6670939806763343  0.5739662410717017
  0.1667145345890404  0.1667194387123629  0.6458456307158187
  0.1667145345890404  0.6667194387123629  0.6458456307158187
  0.6667145345890404  0.1667194387123629  0.6458456307158187
  0.6667145345890404  0.6667194387123629  0.6458456307158187
  0.1666447196261061  0.0000017310851845  0.7107052294686653
  0.1666447196261061  0.5000017310851845  0.7107052294686653
  0.6666447196261061  0.0000017310851845  0.7107052294686653
  0.6666447196261061  0.5000017310851845  0.7107052294686653
  0.1657937251788155  0.0001139636513585  0.5093958451380658
  0.1657937251788155  0.5001139636513585  0.5093958451380658
  0.6657937251788155  0.0001139636513585  0.5093958451380658
  0.6657937251788155  0.5001139636513585  0.5093958451380658
  0.3329055851626208  0.9999598169940001  0.5739662328062280
  0.3329055851626208  0.4999598169940001  0.5739662328062280
  0.8329055851626208  0.9999598169940001  0.5739662328062280
  0.8329055851626208  0.4999598169940001  0.5739662328062280
  0.3332805258070763  0.9999951492691395  0.6458456286071552
  0.3332805258070763  0.4999951492691395  0.6458456286071552
  0.8332805258070763  0.9999951492691395  0.6458456286071552
  0.8332805258070763  0.4999951492691395  0.6458456286071552
  0.3333566218689086  0.3333550522797424  0.7107052301549430
  0.3333566218689086  0.8333550522797424  0.7107052301549430
  0.8333566218689086  0.3333550522797424  0.7107052301549430
  0.8333566218689086  0.8333550522797424  0.7107052301549430
  0.3343195314790819  0.3342057672428851  0.5093958744402727
  0.3343195314790819  0.8342057672428780  0.5093958744402727
  0.8343195314790819  0.3342057672428851  0.5093958744402727
  0.8343195314790819  0.8342057672428780  0.5093958744402727
  0.0000398073675143  0.3329457782553291  0.5739662353985722
  0.0000398073675143  0.8329457782553291  0.5739662353985722
  0.5000398073675143  0.3329457782553291  0.5739662353985722
  0.5000398073675143  0.8329457782553291  0.5739662353985722
  0.0000048386148563  0.3332854320046934  0.6458456304137670
  0.0000048386148563  0.8332854320046934  0.6458456304137670
  0.5000048386148563  0.3332854320046934  0.6458456304137670
  0.5000048386148563  0.8332854320046934  0.6458456304137670
  0.9999980476158825  0.1666431527705043  0.7107052262567279
  0.9999980476158825  0.6666431527705043  0.7107052262567279
  0.4999980476158825  0.1666431527705043  0.7107052262567279
  0.4999980476158825  0.6666431527705043  0.7107052262567279
  0.4998855559192847  0.1656799530447941  0.5093958446427607
  0.4998855559192847  0.6656799530447941  0.5093958446427607
  0.9998855559192847  0.1656799530447941  0.5093958446427607
  0.9998855559192847  0.6656799530447941  0.5093958446427607
  0.1666546359643206  0.1666545487857505  0.6961239840353954
  0.1666546359643206  0.6666545487857505  0.6961239840353954
  0.6666546359643206  0.1666545487857505  0.6961239840353954
  0.6666546359643206  0.6666545487857505  0.6961239840353954
  0.1673462336068070  0.1673776702617218  0.5237238553258194
  0.1673462336068070  0.6673776702617218  0.5237238553258194
  0.6673462336068070  0.1673776702617218  0.5237238553258194
  0.6673462336068070  0.6673776702617218  0.5237238553258194
  0.3333448417128650  0.9999999250087086  0.6961239860948325
  0.3333448417128650  0.4999999250087086  0.6961239860948325
  0.8333448417128650  0.9999999250087086  0.6961239860948325
  0.8333448417128650  0.4999999250087086  0.6961239860948325
  0.3326218231146427  0.9999684969101637  0.5237238430460067
  0.3326218231146427  0.4999684969101637  0.5237238430460067
  0.8326218231146427  0.9999684969101637  0.5237238430460067
  0.8326218231146427  0.4999684969101637  0.5237238430460067
  0.9999994721157890  0.3333447561361993  0.6961239850641547
  0.9999994721157890  0.8333447561361993  0.6961239850641547
  0.4999994721157890  0.3333447561361993  0.6961239850641547
  0.4999994721157890  0.8333447561361993  0.6961239850641547
  0.0000309806705161  0.3326532502843236  0.5237238439802283
  0.0000309806705161  0.8326532502843236  0.5237238439802283
  0.5000309806705161  0.3326532502843236  0.5237238439802283
  0.5000309806705161  0.8326532502843236  0.5237238439802283
  0.0000001690592271  0.0000002961052985  0.3494512178765774
  0.0000001690592271  0.5000002961052985  0.3494512178765774
  0.5000001690592271  0.0000002961052985  0.3494512178765774
  0.5000001690592271  0.5000002961052985  0.3494512178765774
  0.0000008546556671  0.0000011477579633  0.4410893546229033
  0.0000008546556671  0.5000011477579633  0.4410893546229033
  0.5000008546556671  0.0000011477579633  0.4410893546229033
  0.5000008546556671  0.5000011477579633  0.4410893546229033
  0.3333331719725194  0.1666663887267177  0.3948124328187674
  0.3333331719725194  0.6666663887267177  0.3948124328187674
  0.8333331719725194  0.1666663887267177  0.3948124328187674
  0.8333331719725194  0.6666663887267177  0.3948124328187674
  0.3184648486993638  0.3246598935370884  0.3621969026862644
  0.3184648486993638  0.8246598935370884  0.3621969026862644
  0.8184648486993638  0.3246598935370884  0.3621969026862644
  0.8184648486993638  0.8246598935370884  0.3621969026862644
  0.1753395855038207  0.4938025401261896  0.3621964946746630
  0.1753395855038207  0.9938025401261896  0.3621964946746630
  0.6753395855038207  0.4938025401261896  0.3621964946746630
  0.6753395855038207  0.9938025401261896  0.3621964946746630
  0.0061972116582396  0.1815361495568979  0.3621966885563879
  0.0061972116582396  0.6815361495568979  0.3621966885563879
  0.5061972116582396  0.1815361495568979  0.3621966885563879
  0.5061972116582396  0.6815361495568979  0.3621966885563879
  0.0062514810864158  0.3248082757192066  0.4271813606680297
  0.0062514810864158  0.8248082757192066  0.4271813606680297
  0.5062514810864158  0.3248082757192066  0.4271813606680297
  0.5062514810864158  0.8248082757192066  0.4271813606680297
  0.1751938360099103  0.1814450355021364  0.4271815334153004
  0.1751938360099103  0.6814450355021364  0.4271815334153004
  0.6751938360099103  0.1814450355021364  0.4271815334153004
  0.6751938360099103  0.6814450355021364  0.4271815334153004
  0.3185566672481954  0.4937493130386130  0.4271813150661430
  0.3185566672481954  0.9937493130386130  0.4271813150661430
  0.8185566672481954  0.4937493130386130  0.4271813150661430
  0.8185566672481954  0.9937493130386130  0.4271813150661430
  0.1666677758414323  0.3333335370381718  0.3946473533146175
  0.1666677758414323  0.8333335370381718  0.3946473533146175
  0.6666677758414323  0.3333335370381718  0.3946473533146175
  0.6666677758414323  0.8333335370381718  0.3946473533146175
 
  0.00000000E+00  0.00000000E+00  0.00000000E+00
  0.00000000E+00  0.00000000E+00  0.00000000E+00
  0.00000000E+00  0.00000000E+00  0.00000000E+00
  0.00000000E+00  0.00000000E+00  0.00000000E+00
  0.00000000E+00  0.00000000E+00  0.00000000E+00
  0.00000000E+00  0.00000000E+00  0.00000000E+00
  0.00000000E+00  0.00000000E+00  0.00000000E+00
  0.00000000E+00  0.00000000E+00  0.00000000E+00
  0.00000000E+00  0.00000000E+00  0.00000000E+00
  0.00000000E+00  0.00000000E+00  0.00000000E+00
  0.00000000E+00  0.00000000E+00  0.00000000E+00
  0.00000000E+00  0.00000000E+00  0.00000000E+00
  0.00000000E+00  0.00000000E+00  0.00000000E+00
  0.00000000E+00  0.00000000E+00  0.00000000E+00
  0.00000000E+00  0.00000000E+00  0.00000000E+00
  0.00000000E+00  0.00000000E+00  0.00000000E+00
  0.00000000E+00  0.00000000E+00  0.00000000E+00
  0.00000000E+00  0.00000000E+00  0.00000000E+00
  0.00000000E+00  0.00000000E+00  0.00000000E+00
  0.00000000E+00  0.00000000E+00  0.00000000E+00
  0.00000000E+00  0.00000000E+00  0.00000000E+00
  0.00000000E+00  0.00000000E+00  0.00000000E+00
  0.00000000E+00  0.00000000E+00  0.00000000E+00
  0.00000000E+00  0.00000000E+00  0.00000000E+00
  0.00000000E+00  0.00000000E+00  0.00000000E+00
  0.00000000E+00  0.00000000E+00  0.00000000E+00
  0.00000000E+00  0.00000000E+00  0.00000000E+00
  0.00000000E+00  0.00000000E+00  0.00000000E+00
  0.00000000E+00  0.00000000E+00  0.00000000E+00
  0.00000000E+00  0.00000000E+00  0.00000000E+00
  0.00000000E+00  0.00000000E+00  0.00000000E+00
  0.00000000E+00  0.00000000E+00  0.00000000E+00
  0.00000000E+00  0.00000000E+00  0.00000000E+00
  0.00000000E+00  0.00000000E+00  0.00000000E+00
  0.00000000E+00  0.00000000E+00  0.00000000E+00
  0.00000000E+00  0.00000000E+00  0.00000000E+00
  0.00000000E+00  0.00000000E+00  0.00000000E+00
  0.00000000E+00  0.00000000E+00  0.00000000E+00
  0.00000000E+00  0.00000000E+00  0.00000000E+00
  0.00000000E+00  0.00000000E+00  0.00000000E+00
  0.00000000E+00  0.00000000E+00  0.00000000E+00
  0.00000000E+00  0.00000000E+00  0.00000000E+00
  0.00000000E+00  0.00000000E+00  0.00000000E+00
  0.00000000E+00  0.00000000E+00  0.00000000E+00
  0.00000000E+00  0.00000000E+00  0.00000000E+00
  0.00000000E+00  0.00000000E+00  0.00000000E+00
  0.00000000E+00  0.00000000E+00  0.00000000E+00
  0.00000000E+00  0.00000000E+00  0.00000000E+00
  0.00000000E+00  0.00000000E+00  0.00000000E+00
  0.00000000E+00  0.00000000E+00  0.00000000E+00
  0.00000000E+00  0.00000000E+00  0.00000000E+00
  0.00000000E+00  0.00000000E+00  0.00000000E+00
  0.00000000E+00  0.00000000E+00  0.00000000E+00
  0.00000000E+00  0.00000000E+00  0.00000000E+00
  0.00000000E+00  0.00000000E+00  0.00000000E+00
  0.00000000E+00  0.00000000E+00  0.00000000E+00
  0.00000000E+00  0.00000000E+00  0.00000000E+00
  0.00000000E+00  0.00000000E+00  0.00000000E+00
  0.00000000E+00  0.00000000E+00  0.00000000E+00
  0.00000000E+00  0.00000000E+00  0.00000000E+00
  0.00000000E+00  0.00000000E+00  0.00000000E+00
  0.00000000E+00  0.00000000E+00  0.00000000E+00
  0.00000000E+00  0.00000000E+00  0.00000000E+00
  0.00000000E+00  0.00000000E+00  0.00000000E+00
  0.00000000E+00  0.00000000E+00  0.00000000E+00
  0.00000000E+00  0.00000000E+00  0.00000000E+00
  0.00000000E+00  0.00000000E+00  0.00000000E+00
  0.00000000E+00  0.00000000E+00  0.00000000E+00
  0.00000000E+00  0.00000000E+00  0.00000000E+00
  0.00000000E+00  0.00000000E+00  0.00000000E+00
  0.00000000E+00  0.00000000E+00  0.00000000E+00
  0.00000000E+00  0.00000000E+00  0.00000000E+00
  0.00000000E+00  0.00000000E+00  0.00000000E+00
  0.00000000E+00  0.00000000E+00  0.00000000E+00
  0.00000000E+00  0.00000000E+00  0.00000000E+00
  0.00000000E+00  0.00000000E+00  0.00000000E+00
  0.00000000E+00  0.00000000E+00  0.00000000E+00
  0.00000000E+00  0.00000000E+00  0.00000000E+00
  0.00000000E+00  0.00000000E+00  0.00000000E+00
  0.00000000E+00  0.00000000E+00  0.00000000E+00
  0.00000000E+00  0.00000000E+00  0.00000000E+00
  0.00000000E+00  0.00000000E+00  0.00000000E+00
  0.00000000E+00  0.00000000E+00  0.00000000E+00
  0.00000000E+00  0.00000000E+00  0.00000000E+00
  0.00000000E+00  0.00000000E+00  0.00000000E+00
  0.00000000E+00  0.00000000E+00  0.00000000E+00
  0.00000000E+00  0.00000000E+00  0.00000000E+00
  0.00000000E+00  0.00000000E+00  0.00000000E+00
  0.00000000E+00  0.00000000E+00  0.00000000E+00
  0.00000000E+00  0.00000000E+00  0.00000000E+00
  0.00000000E+00  0.00000000E+00  0.00000000E+00
  0.00000000E+00  0.00000000E+00  0.00000000E+00
  0.00000000E+00  0.00000000E+00  0.00000000E+00
  0.00000000E+00  0.00000000E+00  0.00000000E+00
  0.00000000E+00  0.00000000E+00  0.00000000E+00
  0.00000000E+00  0.00000000E+00  0.00000000E+00
  0.00000000E+00  0.00000000E+00  0.00000000E+00
  0.00000000E+00  0.00000000E+00  0.00000000E+00
  0.00000000E+00  0.00000000E+00  0.00000000E+00
  0.00000000E+00  0.00000000E+00  0.00000000E+00
  0.00000000E+00  0.00000000E+00  0.00000000E+00
  0.00000000E+00  0.00000000E+00  0.00000000E+00
  0.00000000E+00  0.00000000E+00  0.00000000E+00
  0.00000000E+00  0.00000000E+00  0.00000000E+00
  0.00000000E+00  0.00000000E+00  0.00000000E+00
  0.00000000E+00  0.00000000E+00  0.00000000E+00
  0.00000000E+00  0.00000000E+00  0.00000000E+00
  0.00000000E+00  0.00000000E+00  0.00000000E+00
  0.00000000E+00  0.00000000E+00  0.00000000E+00
  0.00000000E+00  0.00000000E+00  0.00000000E+00
  0.00000000E+00  0.00000000E+00  0.00000000E+00
  0.00000000E+00  0.00000000E+00  0.00000000E+00
  0.00000000E+00  0.00000000E+00  0.00000000E+00
  0.00000000E+00  0.00000000E+00  0.00000000E+00
  0.00000000E+00  0.00000000E+00  0.00000000E+00
  0.00000000E+00  0.00000000E+00  0.00000000E+00
  0.00000000E+00  0.00000000E+00  0.00000000E+00
  0.00000000E+00  0.00000000E+00  0.00000000E+00
  0.00000000E+00  0.00000000E+00  0.00000000E+00
  0.00000000E+00  0.00000000E+00  0.00000000E+00
  0.00000000E+00  0.00000000E+00  0.00000000E+00
  0.00000000E+00  0.00000000E+00  0.00000000E+00
  0.00000000E+00  0.00000000E+00  0.00000000E+00
  0.00000000E+00  0.00000000E+00  0.00000000E+00
