Global Parameters
ISTART =  0            (Read existing wavefunction; if there)
ISPIN =  2           (Spin polarised DFT)
ICHARG =  1         (Non-self-consistent: GGA/LDA band structures)
LREAL  = Auto          (Projection operators: automatic)
ENCUT  =  520        (Cut-off energy for plane wave basis set, in eV)
LWAVE  = .FALSE.        (Write WAVECAR or not)
LCHARG = .FALSE.        (Write CHGCAR or not)
ADDGRID= .TRUE.        (Increase grid; helps GGA convergence)
NPAR   = 4           (Max is no. nodes; don't set for hybrids)
NWRITE = 1           (Medium-level output)

Electronic Relaxation
ISMEAR =  0
SIGMA  =  0.1
EDIFF  =  1E-06
 
Molecular Dynamics
IBRION =  0            (Activate MD)
NSW    =  5000          (Max electronic SCF steps)
EDIFFG = -1E-02        (Ionic convergence; eV/AA)
POTIM  =  1            (Timestep in fs)
SMASS  =  -3            (MD Algorithm: -3-microcanonical ensemble; 0-canonical ensemble)
TEBEG  =     300     (Start temperature K)
TEEND  =     300     (Start temperature K)
ISYM   =  0          (Symmetry: 0=none; 2=GGA; 3=hybrids)
NBLOCK  =  1
NELM  =  120
NELMIN  =  4
IVDW  =  11
 
