cif2pos.py                              
   1.00000000000000     
    10.1501999999999999    0.0000000000000000    0.0000000000000000
    -5.0750846599999999    8.7903399100000001    0.0000000000000000
     0.0000000000000000   -0.0000704100000000   34.9384000000000015
   Mo   Si   N    Ni   Te   O    H 
    12    24    48    12     3    24     1
Direct
  0.1666164327482775  0.0000822698707523  0.6096963075060131
  0.1664161111749323  0.5000279329072796  0.6098331077036079
  0.6665738657292053  0.9999527089720530  0.6096652137996088
  0.6664105017707556  0.5000392192251510  0.6098681864449063
  0.3331276304586837  0.3333923476966376  0.6097224922916382
  0.3333905094038627  0.8335627750603152  0.6097645789081199
  0.8331990927479964  0.3333731821793435  0.6098308753416006
  0.8333472582609502  0.8334627152532619  0.6097368473403932
  0.9998612942468696  0.1665600562430640  0.6097185840667905
  0.9998010986994785  0.6667502594112733  0.6098338054763630
  0.4999981998737084  0.1667571645201278  0.6097579102817576
  0.4997372497080832  0.6666940976400042  0.6097407290383927
  0.1666674495052263  0.1669062734504294  0.6959674414948083
  0.1666293870743516  0.6668660639357000  0.6960113738246960
  0.6666607516601459  0.1668835919627938  0.6959943562865831
  0.6666436797163584  0.6668892905817998  0.6960028982356690
  0.1668448264074911  0.1668525718744576  0.5233212304176291
  0.1673463439209542  0.6674152732961218  0.5239341244095570
  0.6667537293236450  0.1671661356243419  0.5234358345484793
  0.6672107013784725  0.6675039781116823  0.5238930507327595
  0.3333527681565940  0.0002508643145589  0.6959903586768519
  0.3332926354940184  0.5002381245388960  0.6960021234279097
  0.8333277535136148  0.0002197105288673  0.6959636500081103
  0.8332906830382001  0.5001859512765634  0.6960301830329314
  0.3326182881980699  0.9999759368640539  0.5234756429008414
  0.3326026027246698  0.4996638642326019  0.5233942205626434
  0.8328500415032210  0.0005055964646274  0.5233284047418962
  0.8323928957989892  0.5000089232034171  0.5239257512893971
  0.9999545035901605  0.3334897682942497  0.6960136011180467
  0.9999987469864848  0.8335657146809652  0.6959940292705156
  0.4999760990637867  0.3335317702808211  0.6960014261517458
  0.5000014396908696  0.8335944007739116  0.6959796621931247
  0.9999785046385270  0.3326799592808953  0.5237973141556580
  0.0001735167384709  0.8331420461301633  0.5233383873730588
  0.4995123294531609  0.3324260889798722  0.5236675311660264
  0.4994600964225313  0.8325983591811621  0.5232875213635566
  0.1669494401954168  0.1669587122773137  0.5737680105712997
  0.1663259378066186  0.6667626237321826  0.5740200711208985
  0.6673030619644393  0.1674211580308338  0.5737230153067330
  0.6670075622302676  0.6669738500435471  0.5739482008650754
  0.1665747014224408  0.1667144462166164  0.6456756920003812
  0.1666066276772256  0.6668639663575462  0.6457541350890637
  0.6666280854341196  0.1666496746165933  0.6456978834817164
  0.6665671301932079  0.6668776982534013  0.6457302737802451
  0.1666819316237849  0.0002400437915213  0.7105350759858169
  0.1666130386375144  0.5001773299771557  0.7105728493153833
  0.6666835962941065  0.0002010532927699  0.7105396740122956
  0.6666048593276912  0.5002080585098696  0.7105755751962946
  0.1659296917185529  0.9997906334946407  0.5093171758892865
  0.1652661562165676  0.5002399129975004  0.5092499634726551
  0.6654727229337212  0.0001498339060078  0.5091436311645765
  0.6657665297351656  0.5003650618661197  0.5090996416841449
  0.3331881792448712  0.0003537204128747  0.5738487583518648
  0.3325506889327983  0.5000529433022294  0.5737352076025388
  0.8327432812922595  0.9996989712808286  0.5737002968715359
  0.8326980585308306  0.5000382624976893  0.5739338763373283
  0.3333148506595052  0.0001774481599028  0.6457024987087365
  0.3331272331788568  0.5000602247773287  0.6457081144011951
  0.8332015479085442  0.0000188759921400  0.6456677571317329
  0.8331180128358184  0.5000569565435384  0.6457702365607503
  0.3332942967445618  0.3335408479178810  0.7105521750404336
  0.3333504941176244  0.8335610579099750  0.7105495443435359
  0.8333019958713379  0.3335045559647654  0.7105751089031358
  0.8333310652947148  0.8335634207974181  0.7105459764102662
  0.3341604155112208  0.3338177499377792  0.5093699024679879
  0.3329723914698945  0.8335355924877277  0.5097912255727266
  0.8343992362495172  0.3349696566041942  0.5089345748536260
  0.8336874452355758  0.8338809891522274  0.5089664294033511
  0.9996636645655741  0.3333695253354421  0.5739473919857687
  0.9997040451263715  0.8325738717949065  0.5736614619262639
  0.5002007466906448  0.3333610054596932  0.5738794605811464
  0.4999407186300004  0.8328648544539163  0.5737041648344601
  0.9998218988617253  0.3332421417066698  0.6457448228624187
  0.9999431563045036  0.8334699603559983  0.6456992186622301
  0.4997937697387655  0.3333372764572502  0.6457339046499442
  0.5000028248579653  0.8334408205157473  0.6456813848402803
  0.9999947212722731  0.1668195102361096  0.7105458469188122
  0.9999602637392115  0.6668782525615455  0.7105724435904648
  0.5000177551517098  0.1668773434745106  0.7105586913997541
  0.4999466889551556  0.6668756981871624  0.7105494539236616
  0.4998591604459648  0.1661090032777821  0.5092841835432225
  0.5003159958587204  0.6654266398620265  0.5092418535824876
  0.9999863287021711  0.1667114718408769  0.5096996116630166
  0.9995445950895601  0.6648906598725333  0.5089054440064658
  0.9839669827123672  0.9907646555217013  0.3536618042762854
  0.0085500786950519  0.4967907997256376  0.3529502367312816
  0.5017906941379380  0.9937919151905277  0.3499594625061846
  0.4993605807134855  0.5102549972402386  0.3532107932256778
  0.9698832898447876  0.9837604653911782  0.4357266619848517
  0.9948761262709880  0.5030268290430158  0.4427338443856641
  0.5121067629721878  0.9911483831734458  0.4373609478648461
  0.5174846032143421  0.5129693612511659  0.4404806923240159
  0.3310163920657629  0.1626493110086500  0.3964578878632494
  0.3457337556783742  0.6692185592240065  0.3991075397719541
  0.8302729942053020  0.1612535760364295  0.3960215022365432
  0.8285677304721020  0.6692609747019915  0.3921662669313335
  0.1692136065483680  0.3308118416119967  0.3988114945491219
  0.1684220300664379  0.8329854868823432  0.3954868912582583
  0.6634061244009857  0.3323223582717603  0.3937603103575427
  0.3203325965692230  0.3249321729311632  0.3655079826926340
  0.3184110326232172  0.8193493589544829  0.3631596539702784
  0.8233325445092845  0.3176932422341707  0.3644073539184731
  0.8323039552271041  0.8050599900483419  0.3579096511143831
  0.1907095393255034  0.5029530271241072  0.3669627664520689
  0.1718864252029277  0.9927356936707241  0.3639027217129680
  0.6728590646154871  0.4882848492019320  0.3597303739031119
  0.6838731982438304  0.9998645955573053  0.3607208991252335
  0.0073837602565021  0.1837979068748510  0.3650416472162448
  0.0016911600095213  0.6741530274850049  0.3643419788849869
  0.5046245284311226  0.1762383706117774  0.3624983454474062
  0.5057637594509572  0.6817052626217475  0.3711269047906924
  0.0028621657125143  0.3280229322885191  0.4279247334985996
  0.0055731681873468  0.8210841254760481  0.4276180607533036
  0.5075075768430253  0.3260010783079395  0.4270680624514611
  0.4785949628563060  0.8060851065384114  0.4325669689878850
  0.1659264086987875  0.1695524645271860  0.4292667815467652
  0.1784241141091982  0.6766162734818053  0.4267989822068259
  0.6780442676320533  0.1849049566404588  0.4269022472324195
  0.6830667828329027  0.6807543481183487  0.4208801736252070
  0.3216513862587860  0.4891019837609889  0.4316245601396602
  0.3261187118062736  0.9927352229812598  0.4270801311398316
  0.8177996171925273  0.5039168222349701  0.4244037427553380
  0.8216282558963428  0.0214156374024483  0.4285603527891055
  0.6616636462107763  0.8978236833154369  0.3696279409296039
 
  0.00000000E+00  0.00000000E+00  0.00000000E+00
  0.00000000E+00  0.00000000E+00  0.00000000E+00
  0.00000000E+00  0.00000000E+00  0.00000000E+00
  0.00000000E+00  0.00000000E+00  0.00000000E+00
  0.00000000E+00  0.00000000E+00  0.00000000E+00
  0.00000000E+00  0.00000000E+00  0.00000000E+00
  0.00000000E+00  0.00000000E+00  0.00000000E+00
  0.00000000E+00  0.00000000E+00  0.00000000E+00
  0.00000000E+00  0.00000000E+00  0.00000000E+00
  0.00000000E+00  0.00000000E+00  0.00000000E+00
  0.00000000E+00  0.00000000E+00  0.00000000E+00
  0.00000000E+00  0.00000000E+00  0.00000000E+00
  0.00000000E+00  0.00000000E+00  0.00000000E+00
  0.00000000E+00  0.00000000E+00  0.00000000E+00
  0.00000000E+00  0.00000000E+00  0.00000000E+00
  0.00000000E+00  0.00000000E+00  0.00000000E+00
  0.00000000E+00  0.00000000E+00  0.00000000E+00
  0.00000000E+00  0.00000000E+00  0.00000000E+00
  0.00000000E+00  0.00000000E+00  0.00000000E+00
  0.00000000E+00  0.00000000E+00  0.00000000E+00
  0.00000000E+00  0.00000000E+00  0.00000000E+00
  0.00000000E+00  0.00000000E+00  0.00000000E+00
  0.00000000E+00  0.00000000E+00  0.00000000E+00
  0.00000000E+00  0.00000000E+00  0.00000000E+00
  0.00000000E+00  0.00000000E+00  0.00000000E+00
  0.00000000E+00  0.00000000E+00  0.00000000E+00
  0.00000000E+00  0.00000000E+00  0.00000000E+00
  0.00000000E+00  0.00000000E+00  0.00000000E+00
  0.00000000E+00  0.00000000E+00  0.00000000E+00
  0.00000000E+00  0.00000000E+00  0.00000000E+00
  0.00000000E+00  0.00000000E+00  0.00000000E+00
  0.00000000E+00  0.00000000E+00  0.00000000E+00
  0.00000000E+00  0.00000000E+00  0.00000000E+00
  0.00000000E+00  0.00000000E+00  0.00000000E+00
  0.00000000E+00  0.00000000E+00  0.00000000E+00
  0.00000000E+00  0.00000000E+00  0.00000000E+00
  0.00000000E+00  0.00000000E+00  0.00000000E+00
  0.00000000E+00  0.00000000E+00  0.00000000E+00
  0.00000000E+00  0.00000000E+00  0.00000000E+00
  0.00000000E+00  0.00000000E+00  0.00000000E+00
  0.00000000E+00  0.00000000E+00  0.00000000E+00
  0.00000000E+00  0.00000000E+00  0.00000000E+00
  0.00000000E+00  0.00000000E+00  0.00000000E+00
  0.00000000E+00  0.00000000E+00  0.00000000E+00
  0.00000000E+00  0.00000000E+00  0.00000000E+00
  0.00000000E+00  0.00000000E+00  0.00000000E+00
  0.00000000E+00  0.00000000E+00  0.00000000E+00
  0.00000000E+00  0.00000000E+00  0.00000000E+00
  0.00000000E+00  0.00000000E+00  0.00000000E+00
  0.00000000E+00  0.00000000E+00  0.00000000E+00
  0.00000000E+00  0.00000000E+00  0.00000000E+00
  0.00000000E+00  0.00000000E+00  0.00000000E+00
  0.00000000E+00  0.00000000E+00  0.00000000E+00
  0.00000000E+00  0.00000000E+00  0.00000000E+00
  0.00000000E+00  0.00000000E+00  0.00000000E+00
  0.00000000E+00  0.00000000E+00  0.00000000E+00
  0.00000000E+00  0.00000000E+00  0.00000000E+00
  0.00000000E+00  0.00000000E+00  0.00000000E+00
  0.00000000E+00  0.00000000E+00  0.00000000E+00
  0.00000000E+00  0.00000000E+00  0.00000000E+00
  0.00000000E+00  0.00000000E+00  0.00000000E+00
  0.00000000E+00  0.00000000E+00  0.00000000E+00
  0.00000000E+00  0.00000000E+00  0.00000000E+00
  0.00000000E+00  0.00000000E+00  0.00000000E+00
  0.00000000E+00  0.00000000E+00  0.00000000E+00
  0.00000000E+00  0.00000000E+00  0.00000000E+00
  0.00000000E+00  0.00000000E+00  0.00000000E+00
  0.00000000E+00  0.00000000E+00  0.00000000E+00
  0.00000000E+00  0.00000000E+00  0.00000000E+00
  0.00000000E+00  0.00000000E+00  0.00000000E+00
  0.00000000E+00  0.00000000E+00  0.00000000E+00
  0.00000000E+00  0.00000000E+00  0.00000000E+00
  0.00000000E+00  0.00000000E+00  0.00000000E+00
  0.00000000E+00  0.00000000E+00  0.00000000E+00
  0.00000000E+00  0.00000000E+00  0.00000000E+00
  0.00000000E+00  0.00000000E+00  0.00000000E+00
  0.00000000E+00  0.00000000E+00  0.00000000E+00
  0.00000000E+00  0.00000000E+00  0.00000000E+00
  0.00000000E+00  0.00000000E+00  0.00000000E+00
  0.00000000E+00  0.00000000E+00  0.00000000E+00
  0.00000000E+00  0.00000000E+00  0.00000000E+00
  0.00000000E+00  0.00000000E+00  0.00000000E+00
  0.00000000E+00  0.00000000E+00  0.00000000E+00
  0.00000000E+00  0.00000000E+00  0.00000000E+00
  0.00000000E+00  0.00000000E+00  0.00000000E+00
  0.00000000E+00  0.00000000E+00  0.00000000E+00
  0.00000000E+00  0.00000000E+00  0.00000000E+00
  0.00000000E+00  0.00000000E+00  0.00000000E+00
  0.00000000E+00  0.00000000E+00  0.00000000E+00
  0.00000000E+00  0.00000000E+00  0.00000000E+00
  0.00000000E+00  0.00000000E+00  0.00000000E+00
  0.00000000E+00  0.00000000E+00  0.00000000E+00
  0.00000000E+00  0.00000000E+00  0.00000000E+00
  0.00000000E+00  0.00000000E+00  0.00000000E+00
  0.00000000E+00  0.00000000E+00  0.00000000E+00
  0.00000000E+00  0.00000000E+00  0.00000000E+00
  0.00000000E+00  0.00000000E+00  0.00000000E+00
  0.00000000E+00  0.00000000E+00  0.00000000E+00
  0.00000000E+00  0.00000000E+00  0.00000000E+00
  0.00000000E+00  0.00000000E+00  0.00000000E+00
  0.00000000E+00  0.00000000E+00  0.00000000E+00
  0.00000000E+00  0.00000000E+00  0.00000000E+00
  0.00000000E+00  0.00000000E+00  0.00000000E+00
  0.00000000E+00  0.00000000E+00  0.00000000E+00
  0.00000000E+00  0.00000000E+00  0.00000000E+00
  0.00000000E+00  0.00000000E+00  0.00000000E+00
  0.00000000E+00  0.00000000E+00  0.00000000E+00
  0.00000000E+00  0.00000000E+00  0.00000000E+00
  0.00000000E+00  0.00000000E+00  0.00000000E+00
  0.00000000E+00  0.00000000E+00  0.00000000E+00
  0.00000000E+00  0.00000000E+00  0.00000000E+00
  0.00000000E+00  0.00000000E+00  0.00000000E+00
  0.00000000E+00  0.00000000E+00  0.00000000E+00
  0.00000000E+00  0.00000000E+00  0.00000000E+00
  0.00000000E+00  0.00000000E+00  0.00000000E+00
  0.00000000E+00  0.00000000E+00  0.00000000E+00
  0.00000000E+00  0.00000000E+00  0.00000000E+00
  0.00000000E+00  0.00000000E+00  0.00000000E+00
  0.00000000E+00  0.00000000E+00  0.00000000E+00
  0.00000000E+00  0.00000000E+00  0.00000000E+00
  0.00000000E+00  0.00000000E+00  0.00000000E+00
  0.00000000E+00  0.00000000E+00  0.00000000E+00
  0.00000000E+00  0.00000000E+00  0.00000000E+00
  0.00000000E+00  0.00000000E+00  0.00000000E+00
