cif2pos.py
1.0
    10.15020000     0.00000000     0.00000000
    -5.07508466     8.79033991     0.00000000
     0.00000000    -0.00007041    34.93840000
  Mo  Si  N  Ni  Te  O  H
  12  24  47  12  4  24  1
Direct
     0.16739000     0.00065000     0.60912000
     0.16647000     0.50069000     0.60909000
     0.66696000     0.99969000     0.60904000
     0.66682000     0.50055000     0.60911000
     0.33359000     0.33381000     0.60910000
     0.33372000     0.83300000     0.60904000
     0.83308000     0.33368000     0.60909000
     0.83395000     0.83453000     0.60912000
     0.00015000     0.16713000     0.60910000
     0.00026000     0.66723000     0.60907000
     0.50024000     0.16671000     0.60908000
     0.50016000     0.66647000     0.60937000
     0.16687000     0.16695000     0.69540000
     0.16679000     0.66690000     0.69542000
     0.66675000     0.16684000     0.69535000
     0.66687000     0.66697000     0.69546000
     0.16884000     0.17081000     0.52284000
     0.16896000     0.66961000     0.52266000
     0.66554000     0.16725000     0.52281000
     0.67348000     0.68258000     0.52300000
     0.33348000     0.00027000     0.69533000
     0.33339000     0.50019000     0.69543000
     0.83351000     0.00038000     0.69543000
     0.83341000     0.50026000     0.69537000
     0.33642000     0.00150000     0.52284000
     0.32673000     0.50589000     0.52291000
     0.83311000     0.00215000     0.52270000
     0.83174000     0.50377000     0.52274000
     0.00011000     0.33361000     0.69538000
     0.00013000     0.83361000     0.69539000
     0.50013000     0.33359000     0.69541000
     0.50015000     0.83352000     0.69543000
     0.99556000     0.33237000     0.52303000
     0.00566000     0.83697000     0.52300000
     0.50040000     0.33806000     0.52297000
     0.50363000     0.82025000     0.52282000
     0.16757000     0.16807000     0.57315000
     0.16758000     0.66786000     0.57307000
     0.66685000     0.16658000     0.57319000
     0.66689000     0.66830000     0.57318000
     0.16707000     0.16720000     0.64507000
     0.16689000     0.66708000     0.64510000
     0.66673000     0.16676000     0.64505000
     0.66733000     0.66727000     0.64514000
     0.16683000     0.00025000     0.70992000
     0.16671000     0.50029000     0.70997000
     0.66675000     0.00027000     0.70997000
     0.66680000     0.50024000     0.70996000
     0.17050000     0.00416000     0.50872000
     0.15689000     0.49832000     0.50802000
     0.66488000     0.99994000     0.50846000
     0.66486000     0.50784000     0.50865000
     0.33378000     0.99963000     0.57319000
     0.33316000     0.50098000     0.57314000
     0.83309000     0.00052000     0.57311000
     0.83261000     0.50096000     0.57309000
     0.33371000     0.00009000     0.64506000
     0.33291000     0.49995000     0.64514000
     0.83354000     0.00045000     0.64513000
     0.83339000     0.50046000     0.64507000
     0.33350000     0.33358000     0.70997000
     0.33351000     0.83359000     0.70996000
     0.83339000     0.33354000     0.70993000
     0.83351000     0.83372000     0.70998000
     0.33499000     0.34030000     0.50861000
     0.33889000     0.83473000     0.50849000
     0.83109000     0.33567000     0.50870000
     0.84496000     0.84260000     0.50799000
     0.99921000     0.33316000     0.57325000
     0.00123000     0.83417000     0.57326000
     0.50035000     0.33374000     0.57321000
     0.50046000     0.82917000     0.57312000
     0.99994000     0.33376000     0.64507000
     0.00052000     0.83397000     0.64508000
     0.50021000     0.33361000     0.64507000
     0.50026000     0.83296000     0.64513000
     0.00023000     0.16703000     0.70994000
     0.00008000     0.66690000     0.70993000
     0.50010000     0.16691000     0.70995000
     0.50012000     0.66684000     0.71001000
     0.50053000     0.16965000     0.50874000
     0.00022000     0.16805000     0.50875000
     0.00126000     0.66842000     0.50871000
     0.99818000     0.99726000     0.35129000
     0.99968000     0.49854000     0.35099000
     0.49891000     0.99826000     0.35095000
     0.49999000     0.49875000     0.35107000
     0.99989000     0.99844000     0.44327000
     0.99962000     0.49813000     0.44314000
     0.49861000     0.99734000     0.44374000
     0.49869000     0.49523000     0.44240000
     0.33276000     0.16469000     0.39581000
     0.33260000     0.66507000     0.39665000
     0.83274000     0.16466000     0.39632000
     0.83262000     0.66455000     0.39686000
     0.16597000     0.33160000     0.39608000
     0.16600000     0.83165000     0.39614000
     0.66624000     0.33086000     0.39608000
     0.66555000     0.83138000     0.39684000
     0.31806000     0.32356000     0.36354000
     0.31804000     0.82240000     0.36382000
     0.81818000     0.32261000     0.36354000
     0.81692000     0.82198000     0.36439000
     0.17517000     0.49257000     0.36374000
     0.17424000     0.99161000     0.36345000
     0.67511000     0.49261000     0.36403000
     0.67315000     0.99087000     0.36429000
     0.00532000     0.17953000     0.36359000
     0.00496000     0.67951000     0.36383000
     0.50606000     0.18049000     0.36316000
     0.50549000     0.67960000     0.36433000
     0.00576000     0.32309000     0.42843000
     0.00590000     0.82336000     0.42861000
     0.50502000     0.32093000     0.42846000
     0.50503000     0.82062000     0.43008000
     0.17496000     0.17958000     0.42829000
     0.17441000     0.67982000     0.42863000
     0.67367000     0.17821000     0.42835000
     0.67306000     0.67887000     0.42982000
     0.31891000     0.49236000     0.42874000
     0.31869000     0.99247000     0.42823000
     0.81772000     0.49113000     0.42864000
     0.81806000     0.99223000     0.42884000
     0.49892000     0.65973000     0.50955000
