HHH                                     
   1.00000000000000     
     2.9083307938849763   -0.0000000000003144    0.0000000000000000
    -1.4541653969930324    2.5186883500974813    0.0000000000000000
     0.0000000000000000    0.0000000000000000   20.2679269430469091
   Mo   Si   N 
     1     2     4
Direct
  0.6666666865144677  0.3333333431135159  0.4999999999827267
  0.3333333433246395  0.6666666866262290  0.6491242691710255
  0.3333333433246395  0.6666666866262290  0.3508757308437822
  0.3333333433246395  0.6666666866262290  0.4375876297149901
  0.3333333433246395  0.6666666866262290  0.5624123702998105
  0.6666666865144677  0.3333333431135159  0.6747268723918083
  0.6666666865144677  0.3333333431135159  0.3252731275736451
 
  0.00000000E+00  0.00000000E+00  0.00000000E+00
  0.00000000E+00  0.00000000E+00  0.00000000E+00
  0.00000000E+00  0.00000000E+00  0.00000000E+00
  0.00000000E+00  0.00000000E+00  0.00000000E+00
  0.00000000E+00  0.00000000E+00  0.00000000E+00
  0.00000000E+00  0.00000000E+00  0.00000000E+00
  0.00000000E+00  0.00000000E+00  0.00000000E+00
