generated with latticeMatcher           
   1.00000000000000     
     5.0650615792119948    0.0000051071160734    0.0000047939114164
    -2.5325266010330858    4.3864729820138146   -0.0000049851236646
     0.0000329018098311   -0.0000205810183236   34.8547287323303507
   Mo   N    Si   Ni   O    Te
     3    12     6     3     6     1
Direct
  0.3332987437175348  0.0000035291530907  0.6143464971997403
  0.6667034248916579  0.6667019342290814  0.6143465026381207
  0.9999965424024850  0.3332969246000985  0.6143465097659657
  0.3337459338029163  0.3337772300129913  0.5784595644876873
  0.3333725948095392  0.3333775725922195  0.6502306701403668
  0.3333271903876351  0.0000027160268914  0.7154291740057488
  0.3323606864467976  0.0000722691748223  0.5133348712936296
  0.6662233652011196  0.9999703426122650  0.5784596042516696
  0.6666222010258949  0.9999973316477622  0.6502306422156394
  0.6666703697573624  0.6666734461034025  0.7154291654489100
  0.6677093592141787  0.6676383141109454  0.5133348750247322
  0.0000301835992573  0.6662544725560196  0.5784595913377117
  0.0000023861580445  0.6666270310814184  0.6502306551273165
  0.9999981268938427  0.3333303758415624  0.7154291332614946
  0.9999269789939973  0.3322898231717701  0.5133349124939883
  0.3333369891369671  0.3333411690110140  0.7007181862341554
  0.3340371190033764  0.3340689286931919  0.5279737749255133
  0.6666598394570187  0.0000019396677686  0.7007181569969774
  0.6659306581622104  0.9999700734631674  0.5279737945091725
  0.9999990620028854  0.6666640722715016  0.7007181710527703
  0.0000295461592756  0.6659624610918016  0.5279738037690009
  0.0000043671912735  0.9999979861527351  0.3403501034025567
  0.9999987301151805  0.9999960154973664  0.4313342076669642
  0.6666684387877453  0.3333306346379317  0.3855014679228077
  0.6365283656465621  0.6484998610931925  0.3528426997906280
  0.3515017721584712  0.9880232736297430  0.3528428278571170
  0.0119780624288879  0.3634708451194726  0.3528426888161960
  0.0120460911429916  0.6487551505682347  0.4181554384880215
  0.3512416349035092  0.3632834042639672  0.4181555184849017
  0.6367170165053793  0.9879573781556985  0.4181548790877869
  0.3333349388612774  0.6666642466575325  0.3854839493027171
 
  0.00000000E+00  0.00000000E+00  0.00000000E+00
  0.00000000E+00  0.00000000E+00  0.00000000E+00
  0.00000000E+00  0.00000000E+00  0.00000000E+00
  0.00000000E+00  0.00000000E+00  0.00000000E+00
  0.00000000E+00  0.00000000E+00  0.00000000E+00
  0.00000000E+00  0.00000000E+00  0.00000000E+00
  0.00000000E+00  0.00000000E+00  0.00000000E+00
  0.00000000E+00  0.00000000E+00  0.00000000E+00
  0.00000000E+00  0.00000000E+00  0.00000000E+00
  0.00000000E+00  0.00000000E+00  0.00000000E+00
  0.00000000E+00  0.00000000E+00  0.00000000E+00
  0.00000000E+00  0.00000000E+00  0.00000000E+00
  0.00000000E+00  0.00000000E+00  0.00000000E+00
  0.00000000E+00  0.00000000E+00  0.00000000E+00
  0.00000000E+00  0.00000000E+00  0.00000000E+00
  0.00000000E+00  0.00000000E+00  0.00000000E+00
  0.00000000E+00  0.00000000E+00  0.00000000E+00
  0.00000000E+00  0.00000000E+00  0.00000000E+00
  0.00000000E+00  0.00000000E+00  0.00000000E+00
  0.00000000E+00  0.00000000E+00  0.00000000E+00
  0.00000000E+00  0.00000000E+00  0.00000000E+00
  0.00000000E+00  0.00000000E+00  0.00000000E+00
  0.00000000E+00  0.00000000E+00  0.00000000E+00
  0.00000000E+00  0.00000000E+00  0.00000000E+00
  0.00000000E+00  0.00000000E+00  0.00000000E+00
  0.00000000E+00  0.00000000E+00  0.00000000E+00
  0.00000000E+00  0.00000000E+00  0.00000000E+00
  0.00000000E+00  0.00000000E+00  0.00000000E+00
  0.00000000E+00  0.00000000E+00  0.00000000E+00
  0.00000000E+00  0.00000000E+00  0.00000000E+00
  0.00000000E+00  0.00000000E+00  0.00000000E+00
