cif2pos.py                              
   1.00000000000000     
    10.1501999999999999    0.0000000000000000    0.0000000000000000
    -5.0750846599999999    8.7903399100000001    0.0000000000000000
     0.0000000000000000   -0.0000704100000000   34.9384000000000015
   Mo   Si   N    Ni   Te   O 
    12    24    48    12     4    23
Direct
  0.1666522630962649 -0.0000102596774544  0.6097439766725661
  0.1665784802601915  0.4999600143739607  0.6098572841128910
  0.6667555930447617  0.0000949088971247  0.6097700823501732
  0.6665962782711341  0.4999961138248757  0.6097398894893457
  0.3334322439699051  0.3331900382393335  0.6098260342447549
  0.3334215780374010  0.8333759973800628  0.6098276279548850
  0.8334749030382245  0.3333867484917991  0.6097468726509405
  0.8333580593994357  0.8333516957966653  0.6097241834495942
  0.0001086284856734  0.1666874372047604  0.6097005195039431
 -0.0000035035946234  0.6666475250908505  0.6097994939098986
  0.5000606806483709  0.1666432293603112  0.6097457425484440
  0.5002076790188204  0.6667237376804892  0.6098738872053809
  0.1666981960210744  0.1666491946194705  0.6960228708521558
  0.1666728945883362  0.6666683284756848  0.6960274476130652
  0.6667270360952130  0.1666753642881379  0.6960187213202713
  0.6666879837925003  0.6666733073665652  0.6960250830714121
  0.1672603912959653  0.1673168211042873  0.5234180903849667
  0.1675693255036417  0.6674008008796786  0.5237005344212131
  0.6672271642339713  0.1673704094715633  0.5234861210071876
  0.6672207818737241  0.6669252579534289  0.5233837665067371
  0.3333558542148404 -0.0000002904613813  0.6960257014360353
  0.3333380955123317  0.4999883689582350  0.6960283784678923
  0.8333947437544331  0.0000181691538610  0.6960056574530044
  0.8333343082190889  0.4999986793417301  0.6960269391309923
  0.3327807158857939  0.0001385424002868  0.5236043601599761
  0.3331792341417970  0.5002917979914083  0.5241746981130275
  0.8326083059308347 -0.0002307866791369  0.5234573094935554
  0.8326629917541067  0.4998868963687108  0.5236220782137875
  0.0000140191066432  0.3333214849322745  0.6960268928009785
  0.0000087545218379  0.8333285765324092  0.6960225575707059
  0.5000223704299837  0.3333093943819588  0.6960231225058924
  0.5000413859080156  0.8333499764019954  0.6960283144816906
  0.0001916432368445  0.3327665161296310  0.5233891254098523
  0.0001028859235051  0.8326464618909305  0.5235114498090041
  0.5003413680236164  0.3331269185945046  0.5233899635779450
  0.4999966932390246  0.8326785739035787  0.5237465891134255
  0.1673794503365894  0.1672991510618602  0.5737386263645514
  0.1671473539653284  0.6670335799857223  0.5738928035659222
  0.6670438730958275  0.1670202292970146  0.5737809971010354
  0.6668015707909200  0.6670874483671528  0.5737559844695782
  0.1666740361471016  0.1666029941605915  0.6457177889359954
  0.1666834315842102  0.6667170949214541  0.6457630297835322
  0.6668008667592007  0.1667657020373174  0.6457163963579253
  0.6668387957026636  0.6667431008989545  0.6457352718936419
  0.1666826152939009 -0.0000182947207941  0.7105767196915033
  0.1666578005585275  0.4999861006354623  0.7105841696347730
  0.6667394183612745  0.0000218907890713  0.7105722286240177
  0.6666613223400523  0.4999912891084102  0.7105763787274640
  0.1659664139483021  0.0000475035760304  0.5093120232029412
  0.1671091358178017  0.5005840924058502  0.5092677675832522
  0.6653992945552364 -0.0002037628754630  0.5091833233619011
  0.6662164005274122  0.5000857443887061  0.5093916830009679
  0.3330197729705628  0.9998276866195570  0.5738518128937111
  0.3331403853501521  0.5000064161643695  0.5741215477643833
  0.8328281471514720  0.9998880501637475  0.5737589325532818
  0.8331422612467717  0.5000743558921041  0.5738783255264573
  0.3333266423807381  0.0000333486145652  0.6457323875800413
  0.3333471437620903  0.4999228276601766  0.6457853468850950
  0.8334200609351148  0.0000636878891728  0.6456972951548743
  0.8332784324784316  0.4999690303759236  0.6457287397027515
  0.3333557650187883  0.3332948866470614  0.7105813629593437
  0.3333586917255847  0.8333357373406932  0.7105811103334028
  0.8333676316313350  0.3333451735962810  0.7105795162549339
  0.8333609621683028  0.8333527546553886  0.7105720507029719
  0.3344221699868491  0.3352329244527364  0.5090515088551032
  0.3344582606000759  0.8342649380380629  0.5092414796344604
  0.8343561195500920  0.3342428289673711  0.5093247033242617
  0.8342441035447440  0.8338938681277931  0.5091940248046757
  0.0003849333642753  0.3332853794855295  0.5737438020693190
  0.0000263590202913  0.8328375873009748  0.5737913536733705
  0.4997903975973429  0.3328842590195873  0.5737450548958511
  0.5000303516914807  0.8328465000282926  0.5739106495889870
 -0.0000138585544663  0.3332047439916508  0.6457257215707304
 -0.0000079139598765  0.8333306014901141  0.6457193323663105
  0.5000704994439495  0.3332349875426059  0.6457271776192450
  0.5001546560872772  0.8334241483743645  0.6457619206828933
  0.0000435351352562  0.1666623139210586  0.7105720293932357
 -0.0000045424479917  0.6666659475170202  0.7105826279193641
  0.5000443615024376  0.1666482426638431  0.7105743332027045
  0.5000270611074589  0.6666680935734410  0.7105856448968481
  0.4997505777232555  0.1657578053131342  0.5092309292382240
  0.4993501772667037  0.6654648512124538  0.5091900368356918
 -0.0002309822034286  0.1655156642903317  0.5092993732810384
  0.0002490229818210  0.6655216046217375  0.5092323407963868
  0.0023083611197250  0.0104271695883133  0.3518032646349676
  0.0001205949504004  0.4981211431620153  0.3497540824457295
  0.5029345579201624  0.0010396640890049  0.3495810897574311
  0.4990366583914967  0.4954713464816216  0.3482305211739585
  0.0017406055698304  0.0006585262225992  0.4411416805355901
 -0.0016484236577628  0.5032125972965682  0.4413493961081971
  0.4983848370292443 -0.0042264967990876  0.4410342007294563
  0.4778757866696770  0.4933092589506266  0.4366351990033107
  0.3319936038483902  0.1647580110459735  0.3944304845143206
  0.3334408124107299  0.6699296636048945  0.3910093949783507
  0.8398007852086045  0.1711104491953522  0.3980362161170046
  0.8307938769563795  0.6649741113360961  0.3955825889290072
  0.1847879216320072  0.3481825750504809  0.3975564618503390
  0.1647638971575170  0.8320149816424006  0.3944578575259053
  0.6656521594750491  0.3328145072173473  0.3953019188134246
  0.6667565058803631  0.8329435048254286  0.3946211309118968
  0.3192666895891496  0.3200516418862908  0.3599331334854948
  0.3172391828007413  0.8269608228379958  0.3607246699893468
  0.8203181506393231  0.3241369397621761  0.3642911525736901
  0.8221395852402880  0.8277060105631627  0.3634166053234572
  0.1778473422532529  0.4969158975328316  0.3605316359926133
  0.1728772026245746  0.9922007095443676  0.3623849040572599
  0.6757992579747466  0.4931486724286207  0.3624316628805092
  0.6791189973186510  0.9974536791617008  0.3635252569644556
  0.0153458158498331  0.1913850154801982  0.3670146974989910
  0.0032545612759969  0.6788334152186921  0.3628372720431928
  0.5072034027367947  0.1810304522864860  0.3624582988416731
  0.5076289287411319  0.6803344293065727  0.3613193237986911
  0.0137922866506271  0.3320218734498867  0.4303063502593230
  0.0054048388106739  0.8218323400602484  0.4278797521963009
  0.5013717418202758  0.3248850728318420  0.4269532426839023
  0.4989645430885823  0.8171443774493402  0.4258912830909916
  0.1794543187558032  0.1800045495015945  0.4290960922781015
  0.1788601492644640  0.6785593727055756  0.4257437407190850
  0.6724456521041848  0.1807269762542459  0.4284327140787740
  0.6617764644597215  0.6724845239590113  0.4266640117092337
  0.3180433006128466  0.9911961931962273  0.4268987767192512
  0.8148503317822661  0.4932202565800784  0.4282314927773670
  0.8149217221203147  0.9885447048421447  0.4288894097428887
 
  0.00000000E+00  0.00000000E+00  0.00000000E+00
  0.00000000E+00  0.00000000E+00  0.00000000E+00
  0.00000000E+00  0.00000000E+00  0.00000000E+00
  0.00000000E+00  0.00000000E+00  0.00000000E+00
  0.00000000E+00  0.00000000E+00  0.00000000E+00
  0.00000000E+00  0.00000000E+00  0.00000000E+00
  0.00000000E+00  0.00000000E+00  0.00000000E+00
  0.00000000E+00  0.00000000E+00  0.00000000E+00
  0.00000000E+00  0.00000000E+00  0.00000000E+00
  0.00000000E+00  0.00000000E+00  0.00000000E+00
  0.00000000E+00  0.00000000E+00  0.00000000E+00
  0.00000000E+00  0.00000000E+00  0.00000000E+00
  0.00000000E+00  0.00000000E+00  0.00000000E+00
  0.00000000E+00  0.00000000E+00  0.00000000E+00
  0.00000000E+00  0.00000000E+00  0.00000000E+00
  0.00000000E+00  0.00000000E+00  0.00000000E+00
  0.00000000E+00  0.00000000E+00  0.00000000E+00
  0.00000000E+00  0.00000000E+00  0.00000000E+00
  0.00000000E+00  0.00000000E+00  0.00000000E+00
  0.00000000E+00  0.00000000E+00  0.00000000E+00
  0.00000000E+00  0.00000000E+00  0.00000000E+00
  0.00000000E+00  0.00000000E+00  0.00000000E+00
  0.00000000E+00  0.00000000E+00  0.00000000E+00
  0.00000000E+00  0.00000000E+00  0.00000000E+00
  0.00000000E+00  0.00000000E+00  0.00000000E+00
  0.00000000E+00  0.00000000E+00  0.00000000E+00
  0.00000000E+00  0.00000000E+00  0.00000000E+00
  0.00000000E+00  0.00000000E+00  0.00000000E+00
  0.00000000E+00  0.00000000E+00  0.00000000E+00
  0.00000000E+00  0.00000000E+00  0.00000000E+00
  0.00000000E+00  0.00000000E+00  0.00000000E+00
  0.00000000E+00  0.00000000E+00  0.00000000E+00
  0.00000000E+00  0.00000000E+00  0.00000000E+00
  0.00000000E+00  0.00000000E+00  0.00000000E+00
  0.00000000E+00  0.00000000E+00  0.00000000E+00
  0.00000000E+00  0.00000000E+00  0.00000000E+00
  0.00000000E+00  0.00000000E+00  0.00000000E+00
  0.00000000E+00  0.00000000E+00  0.00000000E+00
  0.00000000E+00  0.00000000E+00  0.00000000E+00
  0.00000000E+00  0.00000000E+00  0.00000000E+00
  0.00000000E+00  0.00000000E+00  0.00000000E+00
  0.00000000E+00  0.00000000E+00  0.00000000E+00
  0.00000000E+00  0.00000000E+00  0.00000000E+00
  0.00000000E+00  0.00000000E+00  0.00000000E+00
  0.00000000E+00  0.00000000E+00  0.00000000E+00
  0.00000000E+00  0.00000000E+00  0.00000000E+00
  0.00000000E+00  0.00000000E+00  0.00000000E+00
  0.00000000E+00  0.00000000E+00  0.00000000E+00
  0.00000000E+00  0.00000000E+00  0.00000000E+00
  0.00000000E+00  0.00000000E+00  0.00000000E+00
  0.00000000E+00  0.00000000E+00  0.00000000E+00
  0.00000000E+00  0.00000000E+00  0.00000000E+00
  0.00000000E+00  0.00000000E+00  0.00000000E+00
  0.00000000E+00  0.00000000E+00  0.00000000E+00
  0.00000000E+00  0.00000000E+00  0.00000000E+00
  0.00000000E+00  0.00000000E+00  0.00000000E+00
  0.00000000E+00  0.00000000E+00  0.00000000E+00
  0.00000000E+00  0.00000000E+00  0.00000000E+00
  0.00000000E+00  0.00000000E+00  0.00000000E+00
  0.00000000E+00  0.00000000E+00  0.00000000E+00
  0.00000000E+00  0.00000000E+00  0.00000000E+00
  0.00000000E+00  0.00000000E+00  0.00000000E+00
  0.00000000E+00  0.00000000E+00  0.00000000E+00
  0.00000000E+00  0.00000000E+00  0.00000000E+00
  0.00000000E+00  0.00000000E+00  0.00000000E+00
  0.00000000E+00  0.00000000E+00  0.00000000E+00
  0.00000000E+00  0.00000000E+00  0.00000000E+00
  0.00000000E+00  0.00000000E+00  0.00000000E+00
  0.00000000E+00  0.00000000E+00  0.00000000E+00
  0.00000000E+00  0.00000000E+00  0.00000000E+00
  0.00000000E+00  0.00000000E+00  0.00000000E+00
  0.00000000E+00  0.00000000E+00  0.00000000E+00
  0.00000000E+00  0.00000000E+00  0.00000000E+00
  0.00000000E+00  0.00000000E+00  0.00000000E+00
  0.00000000E+00  0.00000000E+00  0.00000000E+00
  0.00000000E+00  0.00000000E+00  0.00000000E+00
  0.00000000E+00  0.00000000E+00  0.00000000E+00
  0.00000000E+00  0.00000000E+00  0.00000000E+00
  0.00000000E+00  0.00000000E+00  0.00000000E+00
  0.00000000E+00  0.00000000E+00  0.00000000E+00
  0.00000000E+00  0.00000000E+00  0.00000000E+00
  0.00000000E+00  0.00000000E+00  0.00000000E+00
  0.00000000E+00  0.00000000E+00  0.00000000E+00
  0.00000000E+00  0.00000000E+00  0.00000000E+00
  0.00000000E+00  0.00000000E+00  0.00000000E+00
  0.00000000E+00  0.00000000E+00  0.00000000E+00
  0.00000000E+00  0.00000000E+00  0.00000000E+00
  0.00000000E+00  0.00000000E+00  0.00000000E+00
  0.00000000E+00  0.00000000E+00  0.00000000E+00
  0.00000000E+00  0.00000000E+00  0.00000000E+00
  0.00000000E+00  0.00000000E+00  0.00000000E+00
  0.00000000E+00  0.00000000E+00  0.00000000E+00
  0.00000000E+00  0.00000000E+00  0.00000000E+00
  0.00000000E+00  0.00000000E+00  0.00000000E+00
  0.00000000E+00  0.00000000E+00  0.00000000E+00
  0.00000000E+00  0.00000000E+00  0.00000000E+00
  0.00000000E+00  0.00000000E+00  0.00000000E+00
  0.00000000E+00  0.00000000E+00  0.00000000E+00
  0.00000000E+00  0.00000000E+00  0.00000000E+00
  0.00000000E+00  0.00000000E+00  0.00000000E+00
  0.00000000E+00  0.00000000E+00  0.00000000E+00
  0.00000000E+00  0.00000000E+00  0.00000000E+00
  0.00000000E+00  0.00000000E+00  0.00000000E+00
  0.00000000E+00  0.00000000E+00  0.00000000E+00
  0.00000000E+00  0.00000000E+00  0.00000000E+00
  0.00000000E+00  0.00000000E+00  0.00000000E+00
  0.00000000E+00  0.00000000E+00  0.00000000E+00
  0.00000000E+00  0.00000000E+00  0.00000000E+00
  0.00000000E+00  0.00000000E+00  0.00000000E+00
  0.00000000E+00  0.00000000E+00  0.00000000E+00
  0.00000000E+00  0.00000000E+00  0.00000000E+00
  0.00000000E+00  0.00000000E+00  0.00000000E+00
  0.00000000E+00  0.00000000E+00  0.00000000E+00
  0.00000000E+00  0.00000000E+00  0.00000000E+00
  0.00000000E+00  0.00000000E+00  0.00000000E+00
  0.00000000E+00  0.00000000E+00  0.00000000E+00
  0.00000000E+00  0.00000000E+00  0.00000000E+00
  0.00000000E+00  0.00000000E+00  0.00000000E+00
  0.00000000E+00  0.00000000E+00  0.00000000E+00
  0.00000000E+00  0.00000000E+00  0.00000000E+00
  0.00000000E+00  0.00000000E+00  0.00000000E+00
  0.00000000E+00  0.00000000E+00  0.00000000E+00
  0.00000000E+00  0.00000000E+00  0.00000000E+00
