cif2pos.py                              
   1.00000000000000     
    10.1501999999999999    0.0000000000000000    0.0000000000000000
    -5.0750846599999999    8.7903399100000001    0.0000000000000000
     0.0000000000000000   -0.0000704100000000   34.9384000000000015
   Mo   Si   N    Ni   Te   O 
    12    23    48    12     4    24
Direct
  0.1653573069088239  0.0019461582112967  0.6079455907817959
  0.1673149505050304  0.5039065982464237  0.6083603809836688
  0.6673086169185112  0.0045477849955375  0.6082679801047775
  0.6646710801013498  0.5018776678661609  0.6079010130750149
  0.3349355369685796  0.3369898681090433  0.6079483696833208
  0.3325002497760394  0.8371894999809655  0.6081990582272567
  0.8345123999454387  0.3366028807484227  0.6079655749580510
  0.8324359178992964  0.8362962899722675  0.6083694067935994
  0.0006871435087632  0.1689374663196119  0.6082720573168530
  0.9990882351994301  0.6681103927167200  0.6082214682985452
  0.4998803972168062  0.1719533413984422  0.6075720013394559
  0.4999017778701003  0.6715641184476056  0.6082142451618466
  0.1667123344375909  0.1695324275212045  0.6942816804008629
  0.1663896824068303  0.6695701788313144  0.6944212599130637
  0.6665416598187122  0.1697246853041534  0.6941905872505956
  0.6664317485958549  0.6696158109428936  0.6943720548326482
  0.1781678108876577  0.1793857009475417  0.5207697205658519
  0.1655543644475586  0.6688135456811537  0.5226253270817409
  0.6628557296279496  0.1694188513817636  0.5210387744437170
  0.6683274163641073  0.6665274015390850  0.5212055848168049
  0.3331087105098618  0.0029789060446248  0.6941527865032739
  0.3332739523256762  0.5030636837813702  0.6944081821099886
  0.8333198294670510  0.0030390205279858  0.6944321861186680
  0.8329945711242956  0.5026362205763633  0.6942729470133528
  0.3377952662988051  0.0068627326933424  0.5207652346873388
  0.3315653628946365  0.4982121080754567  0.5214445133088716
  0.8346067266891026  0.0034885271019789  0.5227978904772712
  0.8214994156321254  0.5012754846842995  0.5207199186399478
  0.0000821905761015  0.3362091784093622  0.6943270240688832
  0.9996341390570151  0.8359425931369131  0.6943085512127851
  0.4997908456543954  0.3361996079649572  0.6951267973070827
  0.4998450909078116  0.8365436346123118  0.6943966162928064
  0.9995310364020753  0.3341220640201996  0.5221528146989840
  0.0006594610488975  0.8343225825578031  0.5221726368216721
  0.4999146615942962  0.8343738447680096  0.5223227744652164
  0.1673840304813581  0.1696474116288229  0.5723169457976951
  0.1664339879700947  0.6697226366611773  0.5730609135845626
  0.6688255785134061  0.1718824482064676  0.5721677844328639
  0.6672516768736472  0.6722348913577392  0.5725728391666678
  0.1666596104064695  0.1689440638085884  0.6439425885836698
  0.1663669859349639  0.6698976234050278  0.6440958001334494
  0.6672012912125709  0.1707673026066558  0.6438207482883769
  0.6661336764549830  0.6703607509198619  0.6440625583705994
  0.1664149710505498  0.0026531864282830  0.7088188610821362
  0.1665123157044164  0.5030212623610240  0.7089601959700147
  0.6667026887479395  0.0031822146483691  0.7088841381586377
  0.6669712866640083  0.5033857121023360  0.7092524161053007
  0.1650007873203023  0.0025657157314640  0.5075813523078878
  0.1617236396838209  0.5033833849148479  0.5078503954969023
  0.6689920259397937  0.0005182364620850  0.5088209462056597
  0.6760705939694915  0.5174930570558942  0.5039309200601210
  0.3313723557480941  0.0031043314966084  0.5720585570560957
  0.3324372347764566  0.5049511743609827  0.5726838943710248
  0.8333947245421385  0.0031358439035927  0.5731723575225800
  0.8321269454754585  0.5020423385207806  0.5722567203442708
  0.3326104366878653  0.0034286432205519  0.6437878534408412
  0.3336222486854012  0.5041876172664388  0.6440905158520280
  0.8333686609090023  0.0032806029555630  0.6441302011377203
  0.8330701153314095  0.5022236767418704  0.6439225321115813
  0.3326820826086774  0.3362612688575979  0.7092622472928980
  0.3329909389834569  0.8363264454305721  0.7088693548807683
  0.8332678469568577  0.3360910235884873  0.7088309532595503
  0.8331529936524547  0.8363065269495635  0.7089527293822684
  0.3245942012088321  0.3413475737587390  0.5045086232548996
  0.3312491080260926  0.8315474474053985  0.5086007826648995
  0.8354541324753981  0.3380636244445228  0.5073500320920843
  0.8385367246921618  0.8417351594743394  0.5080389742879632
  0.0011986061280780  0.3354608943677135  0.5726092866269923
  0.9987028885328115  0.8339983001638061  0.5726021816817592
  0.4997350965474752  0.3375444301342725  0.5768059724811465
  0.4999167332262076  0.8375680231089788  0.5728172515725731
  0.0008920101679379  0.3362021115081433  0.6440656212804186
  0.9989056565675014  0.8351112281196151  0.6440536344955845
  0.4998681572800336  0.3364566139993741  0.6451430340540298
  0.4998652907514369  0.8380496781189848  0.6441385190408155
  0.0000764364767392  0.1695363635109146  0.7089104167998954
  0.9996122675005523  0.6692683898182068  0.7089042417748672
  0.4997946116819776  0.1689158251510818  0.7091514158178711
  0.4998779547435035  0.6698544921292111  0.7089599138073766
  0.5007151297121979  0.1425842682022989  0.5017808799910526
  0.4997482915160134  0.6684161307560004  0.5085403081380804
  0.9993207312715953  0.1668458868437952  0.5083062274811851
  0.0003229836153338  0.6669284123650101  0.5081054673726086
  0.9971823992445579  0.9951439019185813  0.3551199387957666
  0.0102794173991185  0.5010588072308053  0.3528506156060516
  0.5023327008716407  0.9864573659380582  0.3540476296817232
  0.4940407911634637  0.4982737012137264  0.3550407783428184
  0.9994658731540156  0.9924827164120202  0.4513974368815212
  0.9923349695908925  0.4940302114173178  0.4506424897878674
  0.5060793650558608  0.0054877317142896  0.4508207832057991
  0.4983388478381556  0.4678108010118081  0.4586651300530846
  0.3330868815930472  0.1580483412891382  0.3967341369890676
  0.3346729228185978  0.6617667205085525  0.3991210487096311
  0.8372909109036044  0.1636717642405756  0.3975635750075881
  0.8293205192141784  0.6596689956790200  0.3976945204806910
  0.1702179149238390  0.3292138479175293  0.4009064653063987
  0.1635280373145278  0.8254804122042714  0.3982470612618556
  0.6689408394242520  0.3286147592641910  0.3938796971439160
  0.6666657936766995  0.8252691281418834  0.4008653801540731
  0.3164695119316718  0.3088203373254714  0.3668088086928734
  0.3151031388731340  0.8176131535560387  0.3652627402920672
  0.8248202478012345  0.3222751594643540  0.3623825987434799
  0.8171871858056790  0.8200273993655500  0.3664003360532249
  0.1814396260035664  0.4852721585588071  0.3659292022322305
  0.1806299614994629  0.9988911647540775  0.3666614442677556
  0.6717959026220939  0.4880692605779515  0.3627549721644954
  0.6867707568440835  0.9974218031145128  0.3675676833140074
  0.9996143681821366  0.1764324625330502  0.3682242117919117
  0.0065641475042497  0.6806698795699191  0.3640704870748337
  0.5070731936117738  0.1717030818659850  0.3625641693302626
  0.5083931700729778  0.6849706802648470  0.3651768266836299
  0.9976971312084402  0.3184051199500217  0.4289086318669533
  0.0040324367542652  0.8201168168565189  0.4293394608197829
  0.4986214980012633  0.3055701110226892  0.4255383335496319
  0.5048179366993466  0.8270586300557738  0.4297106796138124
  0.1725990784913662  0.1696953732286843  0.4299904031054211
  0.1697337732591038  0.6721054042094110  0.4296658784820480
  0.6877007903207186  0.1768195335802361  0.4253778438465048
  0.6647053212065046  0.6640536652644258  0.4298650527093031
  0.3274496428277587  0.4875522780731174  0.4303176306132031
  0.3208913587246371  0.9973983708477547  0.4271613747263387
  0.8155336789357435  0.4850708934555925  0.4273175421181676
  0.8224235956387957  0.9907229533151778  0.4309138856323358
 
  0.00000000E+00  0.00000000E+00  0.00000000E+00
  0.00000000E+00  0.00000000E+00  0.00000000E+00
  0.00000000E+00  0.00000000E+00  0.00000000E+00
  0.00000000E+00  0.00000000E+00  0.00000000E+00
  0.00000000E+00  0.00000000E+00  0.00000000E+00
  0.00000000E+00  0.00000000E+00  0.00000000E+00
  0.00000000E+00  0.00000000E+00  0.00000000E+00
  0.00000000E+00  0.00000000E+00  0.00000000E+00
  0.00000000E+00  0.00000000E+00  0.00000000E+00
  0.00000000E+00  0.00000000E+00  0.00000000E+00
  0.00000000E+00  0.00000000E+00  0.00000000E+00
  0.00000000E+00  0.00000000E+00  0.00000000E+00
  0.00000000E+00  0.00000000E+00  0.00000000E+00
  0.00000000E+00  0.00000000E+00  0.00000000E+00
  0.00000000E+00  0.00000000E+00  0.00000000E+00
  0.00000000E+00  0.00000000E+00  0.00000000E+00
  0.00000000E+00  0.00000000E+00  0.00000000E+00
  0.00000000E+00  0.00000000E+00  0.00000000E+00
  0.00000000E+00  0.00000000E+00  0.00000000E+00
  0.00000000E+00  0.00000000E+00  0.00000000E+00
  0.00000000E+00  0.00000000E+00  0.00000000E+00
  0.00000000E+00  0.00000000E+00  0.00000000E+00
  0.00000000E+00  0.00000000E+00  0.00000000E+00
  0.00000000E+00  0.00000000E+00  0.00000000E+00
  0.00000000E+00  0.00000000E+00  0.00000000E+00
  0.00000000E+00  0.00000000E+00  0.00000000E+00
  0.00000000E+00  0.00000000E+00  0.00000000E+00
  0.00000000E+00  0.00000000E+00  0.00000000E+00
  0.00000000E+00  0.00000000E+00  0.00000000E+00
  0.00000000E+00  0.00000000E+00  0.00000000E+00
  0.00000000E+00  0.00000000E+00  0.00000000E+00
  0.00000000E+00  0.00000000E+00  0.00000000E+00
  0.00000000E+00  0.00000000E+00  0.00000000E+00
  0.00000000E+00  0.00000000E+00  0.00000000E+00
  0.00000000E+00  0.00000000E+00  0.00000000E+00
  0.00000000E+00  0.00000000E+00  0.00000000E+00
  0.00000000E+00  0.00000000E+00  0.00000000E+00
  0.00000000E+00  0.00000000E+00  0.00000000E+00
  0.00000000E+00  0.00000000E+00  0.00000000E+00
  0.00000000E+00  0.00000000E+00  0.00000000E+00
  0.00000000E+00  0.00000000E+00  0.00000000E+00
  0.00000000E+00  0.00000000E+00  0.00000000E+00
  0.00000000E+00  0.00000000E+00  0.00000000E+00
  0.00000000E+00  0.00000000E+00  0.00000000E+00
  0.00000000E+00  0.00000000E+00  0.00000000E+00
  0.00000000E+00  0.00000000E+00  0.00000000E+00
  0.00000000E+00  0.00000000E+00  0.00000000E+00
  0.00000000E+00  0.00000000E+00  0.00000000E+00
  0.00000000E+00  0.00000000E+00  0.00000000E+00
  0.00000000E+00  0.00000000E+00  0.00000000E+00
  0.00000000E+00  0.00000000E+00  0.00000000E+00
  0.00000000E+00  0.00000000E+00  0.00000000E+00
  0.00000000E+00  0.00000000E+00  0.00000000E+00
  0.00000000E+00  0.00000000E+00  0.00000000E+00
  0.00000000E+00  0.00000000E+00  0.00000000E+00
  0.00000000E+00  0.00000000E+00  0.00000000E+00
  0.00000000E+00  0.00000000E+00  0.00000000E+00
  0.00000000E+00  0.00000000E+00  0.00000000E+00
  0.00000000E+00  0.00000000E+00  0.00000000E+00
  0.00000000E+00  0.00000000E+00  0.00000000E+00
  0.00000000E+00  0.00000000E+00  0.00000000E+00
  0.00000000E+00  0.00000000E+00  0.00000000E+00
  0.00000000E+00  0.00000000E+00  0.00000000E+00
  0.00000000E+00  0.00000000E+00  0.00000000E+00
  0.00000000E+00  0.00000000E+00  0.00000000E+00
  0.00000000E+00  0.00000000E+00  0.00000000E+00
  0.00000000E+00  0.00000000E+00  0.00000000E+00
  0.00000000E+00  0.00000000E+00  0.00000000E+00
  0.00000000E+00  0.00000000E+00  0.00000000E+00
  0.00000000E+00  0.00000000E+00  0.00000000E+00
  0.00000000E+00  0.00000000E+00  0.00000000E+00
  0.00000000E+00  0.00000000E+00  0.00000000E+00
  0.00000000E+00  0.00000000E+00  0.00000000E+00
  0.00000000E+00  0.00000000E+00  0.00000000E+00
  0.00000000E+00  0.00000000E+00  0.00000000E+00
  0.00000000E+00  0.00000000E+00  0.00000000E+00
  0.00000000E+00  0.00000000E+00  0.00000000E+00
  0.00000000E+00  0.00000000E+00  0.00000000E+00
  0.00000000E+00  0.00000000E+00  0.00000000E+00
  0.00000000E+00  0.00000000E+00  0.00000000E+00
  0.00000000E+00  0.00000000E+00  0.00000000E+00
  0.00000000E+00  0.00000000E+00  0.00000000E+00
  0.00000000E+00  0.00000000E+00  0.00000000E+00
  0.00000000E+00  0.00000000E+00  0.00000000E+00
  0.00000000E+00  0.00000000E+00  0.00000000E+00
  0.00000000E+00  0.00000000E+00  0.00000000E+00
  0.00000000E+00  0.00000000E+00  0.00000000E+00
  0.00000000E+00  0.00000000E+00  0.00000000E+00
  0.00000000E+00  0.00000000E+00  0.00000000E+00
  0.00000000E+00  0.00000000E+00  0.00000000E+00
  0.00000000E+00  0.00000000E+00  0.00000000E+00
  0.00000000E+00  0.00000000E+00  0.00000000E+00
  0.00000000E+00  0.00000000E+00  0.00000000E+00
  0.00000000E+00  0.00000000E+00  0.00000000E+00
  0.00000000E+00  0.00000000E+00  0.00000000E+00
  0.00000000E+00  0.00000000E+00  0.00000000E+00
  0.00000000E+00  0.00000000E+00  0.00000000E+00
  0.00000000E+00  0.00000000E+00  0.00000000E+00
  0.00000000E+00  0.00000000E+00  0.00000000E+00
  0.00000000E+00  0.00000000E+00  0.00000000E+00
  0.00000000E+00  0.00000000E+00  0.00000000E+00
  0.00000000E+00  0.00000000E+00  0.00000000E+00
  0.00000000E+00  0.00000000E+00  0.00000000E+00
  0.00000000E+00  0.00000000E+00  0.00000000E+00
  0.00000000E+00  0.00000000E+00  0.00000000E+00
  0.00000000E+00  0.00000000E+00  0.00000000E+00
  0.00000000E+00  0.00000000E+00  0.00000000E+00
  0.00000000E+00  0.00000000E+00  0.00000000E+00
  0.00000000E+00  0.00000000E+00  0.00000000E+00
  0.00000000E+00  0.00000000E+00  0.00000000E+00
  0.00000000E+00  0.00000000E+00  0.00000000E+00
  0.00000000E+00  0.00000000E+00  0.00000000E+00
  0.00000000E+00  0.00000000E+00  0.00000000E+00
  0.00000000E+00  0.00000000E+00  0.00000000E+00
  0.00000000E+00  0.00000000E+00  0.00000000E+00
  0.00000000E+00  0.00000000E+00  0.00000000E+00
  0.00000000E+00  0.00000000E+00  0.00000000E+00
  0.00000000E+00  0.00000000E+00  0.00000000E+00
  0.00000000E+00  0.00000000E+00  0.00000000E+00
  0.00000000E+00  0.00000000E+00  0.00000000E+00
  0.00000000E+00  0.00000000E+00  0.00000000E+00
  0.00000000E+00  0.00000000E+00  0.00000000E+00
  0.00000000E+00  0.00000000E+00  0.00000000E+00
