generated with latticeMatcher           
   1.00000000000000     
     5.0570508923629625    0.0000000000000000    0.0000000000000000
    -2.5285256795845847    4.3791960148720195    0.0000000000000000
     0.0000000000000000    0.0000000000000000   35.0000000000000000
   Mo   N    Si   Ni   O    Te
     3    12     6     3     6     1
Direct
  0.3332530515527594  0.0000119226792563  0.6101741972502168
  0.6667510208587402  0.6667515480778192  0.6101739872802980
  0.9999878750687259  0.3332431606413166  0.6101740487103058
  0.3340765110952333  0.3341463465037791  0.5742152731750139
  0.3334146583285147  0.3334325079382126  0.6461448286291116
  0.3331955593563549  0.9999144754363698  0.7109569836462128
  0.3316775604487034  0.0002040899197624  0.5096281878714777
  0.6658701056123348  0.9999331931739661  0.5742130835916797
  0.6665449531799155  0.9999827716296679  0.6461441729303985
  0.6665738818125178  0.6666047953333134  0.7109574202819431
  0.6685428174288219  0.6683541489473512  0.5096286748980816
  0.0000865047365153  0.6659554381518902  0.5742135363749341
  0.9999913586948352  0.6665600682255999  0.6461418984199625
  0.9998826232151146  0.3332266672011173  0.7109570497742510
  0.9998481448880980  0.3315068687937668  0.5096310483508333
  0.3332358193734635  0.3332695539392247  0.6963174008018669
  0.3346613320749796  0.3346687379214330  0.5240559903815623
  0.6665258754146919  0.9999124600698224  0.6963161037672378
  0.6653890334441144  0.0000051703752177  0.5240543922803553
  0.9998816585154771  0.6665590982269691  0.6963145797644117
  0.0000741352154421  0.6653922047108765  0.5240570356674468
  0.0000150640402481  0.9999879583721523  0.3486493537736024
  0.0000500157819019  0.0000211734803131  0.4405341337326760
  0.6667152465707815  0.3333563865507756  0.3943597197091151
  0.6368726921918011  0.6486150784830471  0.3616215478557123
  0.3514544860179427  0.9883141494995300  0.3616238209059262
  0.0117712929310727  0.3631500959812186  0.3616250729369241
  0.0120705830812753  0.6487371030235778  0.4267056734723411
  0.3513443621620880  0.3633158661532576  0.4267097212631796
  0.6367988484836289  0.9880773126997084  0.4267025634030972
  0.3334436473892026  0.6667904007483187  0.3941405360998473
 
  0.00000000E+00  0.00000000E+00  0.00000000E+00
  0.00000000E+00  0.00000000E+00  0.00000000E+00
  0.00000000E+00  0.00000000E+00  0.00000000E+00
  0.00000000E+00  0.00000000E+00  0.00000000E+00
  0.00000000E+00  0.00000000E+00  0.00000000E+00
  0.00000000E+00  0.00000000E+00  0.00000000E+00
  0.00000000E+00  0.00000000E+00  0.00000000E+00
  0.00000000E+00  0.00000000E+00  0.00000000E+00
  0.00000000E+00  0.00000000E+00  0.00000000E+00
  0.00000000E+00  0.00000000E+00  0.00000000E+00
  0.00000000E+00  0.00000000E+00  0.00000000E+00
  0.00000000E+00  0.00000000E+00  0.00000000E+00
  0.00000000E+00  0.00000000E+00  0.00000000E+00
  0.00000000E+00  0.00000000E+00  0.00000000E+00
  0.00000000E+00  0.00000000E+00  0.00000000E+00
  0.00000000E+00  0.00000000E+00  0.00000000E+00
  0.00000000E+00  0.00000000E+00  0.00000000E+00
  0.00000000E+00  0.00000000E+00  0.00000000E+00
  0.00000000E+00  0.00000000E+00  0.00000000E+00
  0.00000000E+00  0.00000000E+00  0.00000000E+00
  0.00000000E+00  0.00000000E+00  0.00000000E+00
  0.00000000E+00  0.00000000E+00  0.00000000E+00
  0.00000000E+00  0.00000000E+00  0.00000000E+00
  0.00000000E+00  0.00000000E+00  0.00000000E+00
  0.00000000E+00  0.00000000E+00  0.00000000E+00
  0.00000000E+00  0.00000000E+00  0.00000000E+00
  0.00000000E+00  0.00000000E+00  0.00000000E+00
  0.00000000E+00  0.00000000E+00  0.00000000E+00
  0.00000000E+00  0.00000000E+00  0.00000000E+00
  0.00000000E+00  0.00000000E+00  0.00000000E+00
  0.00000000E+00  0.00000000E+00  0.00000000E+00
