Converted by xsd2pos.py                 
   1.00000000000000     
    10.1502230000000004    0.0000000000000000    0.0000000000000000
    -5.0750975100000000    8.7903671299999999    0.0000000000000000
     0.0000000000000000   -0.0000535100000000   34.9384000000000015
   Mo   N    Si   Ni   O    Te   H 
    12    48    24    12    24     4     1
Direct
  0.1666231108769745  0.0000003437922188  0.6098026049963735
  0.1666206918918127  0.5000000033780371  0.6097994472746744
  0.6666210786689478  0.0000017712313215  0.6097981654544270
  0.6666261942747883  0.5000069082144776  0.6097999683396894
  0.3333655528644158  0.3333685221370351  0.6098025737055333
  0.3333697665566213  0.8333648316791182  0.6098000533021501
  0.8333672690510215  0.3333700289492918  0.6097997038839287
  0.8333706722581059  0.8333717384158128  0.6097983094379589
 -0.0000157096667679  0.1666223924663003  0.6098005251523743
 -0.0000079935326297  0.6666239275009422  0.6097994075399311
  0.4999898362867888  0.1666252779258678  0.6098026538874961
  0.4999887586777578  0.6666207685181079  0.6097979824172778
  0.1670565285994605  0.1671032167245714  0.5738643238728455
  0.1670538823680393  0.6671023515562233  0.5738592011647620
  0.6670456373450588  0.1671129164296893  0.5738618184810862
  0.6670568691586982  0.6670960551862090  0.5738580496429412
  0.1666962621208215  0.1667060379646945  0.6457466108229304
  0.1666997000364482  0.6667065161515596  0.6457453961495903
  0.6666994577210231  0.1667082422291039  0.6457456640813726
  0.6667018669249632  0.6667125583560464  0.6457442795083141
  0.1666615970294961 -0.0000021327595516  0.7105814379598625
  0.1666561642535213  0.4999970274396162  0.7105807252464561
  0.6666605708656462  0.0000022054670398  0.7105801310261386
  0.6666590090345205  0.4999980859131508  0.7105803593502763
  0.1657555518397065  0.0001279330189013  0.5093002903499378
  0.1657552432421865  0.5001187129993976  0.5093025243981871
  0.6657455509274619  0.0001257390856613  0.5093132800761466
  0.6657324844652983  0.5000838444789590  0.5093019030961549
  0.3328898138827738  0.9999580188902579  0.5738643376001832
  0.3328770209327810  0.4999346380607889  0.5738612601036068
  0.8328976318556846 -0.0000349153840909  0.5738579320331179
  0.8328895875538774  0.4999538729940139  0.5738596796014324
  0.3332853569073811 -0.0000090239317091  0.6457464856555982
  0.3332813261556525  0.4999950158071005  0.6457460047651350
  0.8332775039143621 -0.0000068858146049  0.6457449956420473
  0.8332849719333589  0.4999948758020523  0.6457450744204480
  0.3333311021060752  0.3333337808641024  0.7105808857149755
  0.3333356268318158  0.8333365710220817  0.7105800964106492
  0.8333348269196169  0.3333367195927301  0.7105800471598576
  0.8333325032463077  0.8333341634430111  0.7105794889356813
  0.3343669487677688  0.3342407557988260  0.5092991800131061
  0.3343457857109404  0.8342633251154955  0.5093018394215241
  0.8343592149209477  0.3342406674748521  0.5093028934145308
  0.8343741296053536  0.8342506271665785  0.5093131665109978
  0.0000363615637102  0.3329372328791587  0.5738598258573455
  0.0000564187913289  0.8329447693602703  0.5738614799624998
  0.5000328856394999  0.3329341803028288  0.5738642134756100
  0.5000286805249414  0.8329351322048644  0.5738579637973498
 -0.0000030105904172  0.3332934209236826  0.6457458806755536
 -0.0000032487897902  0.8332898268656651  0.6457455764064647
  0.4999998513274954  0.3332968955777533  0.6457464474201499
  0.5000008996637695  0.8332891741595512  0.6457445676728163
 -0.0000025093025451  0.1666594691636646  0.7105812194086886
 -0.0000027488118558  0.6666611002273767  0.7105798385930154
  0.4999973789959654  0.1666637862279298  0.7105808019369686
  0.4999940267753866  0.6666604505413072  0.7105793932345043
  0.4998707878835454  0.1656286569619341  0.5093000633305288
  0.4998697162748322  0.6656211552964180  0.5093128056909517
 -0.0000877757068402  0.1656517713580533  0.5093015897757188
  0.9998756492363240  0.6656371685233091  0.5093022358623895
  0.1666665478745489  0.1666675375642143  0.6960276621539701
  0.1666656655402161  0.6666669150214276  0.6960277395965255
  0.6666670190170186  0.1666675383406970  0.6960270927803097
  0.6666670213870792  0.6666674857477425  0.6960275959100566
  0.1673206594705903  0.1673493352755802  0.5236221226986988
  0.1673087956064960  0.6673375245061738  0.5236115298832273
  0.6673179494970525  0.1673398939372209  0.5236147706754603
  0.6673175590429362  0.6673349120659281  0.5236077278391773
  0.3333289383055466  0.0000000448424665  0.6960270154515437
  0.3333308535431554  0.4999987475528903  0.6960277481023310
  0.8333291587119774 -0.0000017004971041  0.6960277098252289
  0.8333317910595873  0.4999993443337252  0.6960277242559394
  0.3326472118163704 -0.0000256369256698  0.5236219971273963
  0.3326547407571453  0.4999785894412416  0.5236145301363093
  0.8326654044417594 -0.0000134188587723  0.5236073137040193
  0.8326613289305467  0.4999752002743317  0.5236121078887825
 -0.0000009519430730  0.3333316801693613  0.6960273945327241
 -0.0000020673760564  0.8333289269033486  0.6960277576776187
  0.4999993790619077  0.3333327168013346  0.6960276986056164
  0.4999975758898459  0.8333308604777084  0.6960279472888410
  0.0000229001418712  0.3326853825615100  0.5236124468731681
  0.0000182158083562  0.8326799413974647  0.5236144361385952
  0.5000223686536232  0.3326753574675617  0.5236219811827032
  0.5000110993757382  0.8326773436920876  0.5236077754521781
 -0.0004086615226643 -0.0001271585204010  0.3501911623876046
 -0.0000388966960078  0.4999862874826934  0.3502737757153534
  0.5001187072222362 -0.0003025318495138  0.3502135463181489
  0.5002782205232633  0.5004238750545021  0.3502132426608848
  0.0003483210079544  0.0001418429834157  0.4418868978500261
 -0.0000062273893815  0.4999919350397466  0.4417976557009043
  0.4998427923453432  0.0001971086533039  0.4418890343999621
  0.4997848264826737  0.4996470098981585  0.4418897995096358
  0.3333176686197719  0.1666588153142095  0.3953891011636221
  0.3332368813758808  0.6666721170523705  0.3957806265934122
  0.8334352808113425  0.1667513211999749  0.3957906696669152
  0.8333124325284660  0.6665496657551346  0.3958011206487076
  0.3185151569521528  0.3248897654290576  0.3628304232072919
  0.3185639299234178  0.8244103344435079  0.3629820700563900
  0.8186216986863242  0.3245190807401040  0.3630089789648415
  0.8185411899400863  0.8248911353839982  0.3634082290833839
  0.1754379061310135  0.4940967839211945  0.3629983951998740
  0.1750985860944409  0.9936218372755674  0.3628313234159719
  0.6755472263759518  0.4941498903153465  0.3630015083198783
  0.6751267750763617  0.9936144505188560  0.3633891088910375
  0.0058192911484042  0.1813955645333770  0.3629830120610621
  0.0058622269171067  0.6813393279877588  0.3630098378087271
  0.5063609927684664  0.1814582649139625  0.3628392144537705
  0.5064147604175011  0.6815511492525680  0.3633727556748228
  0.0064594281421671  0.3247871760630556  0.4279583109218585
  0.0064952974583797  0.8248355595312478  0.4279666168187737
  0.5060228412699466  0.3245804750274794  0.4277887115103015
  0.5059493805221192  0.8245196761027087  0.4282919473078654
  0.1753821176832582  0.1814349026028200  0.4277772898185779
  0.1752010223928341  0.6816526556848560  0.4279545371531254
  0.6751554725674211  0.1816341481655225  0.4279659570818782
  0.6754615927374096  0.6814445479087039  0.4283014375342657
  0.3183563806728454  0.4935141771371919  0.4279535874797116
  0.3185511334715073  0.9939491628890239  0.4277821048517118
  0.8183075365299779  0.4935132821646832  0.4279696201487240
  0.8185479356707612  0.9940267289393090  0.4283000448218149
  0.1666746357093531  0.3333389403775675  0.3953502605164179
  0.1666456437622068  0.8333361816969275  0.3953559973352385
  0.6666398379340713  0.3332892600352412  0.3953651756021302
  0.6666619656579426  0.8333343526357401  0.3959296384969148
  0.6721136186032257  0.8359564062415048  0.2975484659457070
 
  0.00000000E+00  0.00000000E+00  0.00000000E+00
  0.00000000E+00  0.00000000E+00  0.00000000E+00
  0.00000000E+00  0.00000000E+00  0.00000000E+00
  0.00000000E+00  0.00000000E+00  0.00000000E+00
  0.00000000E+00  0.00000000E+00  0.00000000E+00
  0.00000000E+00  0.00000000E+00  0.00000000E+00
  0.00000000E+00  0.00000000E+00  0.00000000E+00
  0.00000000E+00  0.00000000E+00  0.00000000E+00
  0.00000000E+00  0.00000000E+00  0.00000000E+00
  0.00000000E+00  0.00000000E+00  0.00000000E+00
  0.00000000E+00  0.00000000E+00  0.00000000E+00
  0.00000000E+00  0.00000000E+00  0.00000000E+00
  0.00000000E+00  0.00000000E+00  0.00000000E+00
  0.00000000E+00  0.00000000E+00  0.00000000E+00
  0.00000000E+00  0.00000000E+00  0.00000000E+00
  0.00000000E+00  0.00000000E+00  0.00000000E+00
  0.00000000E+00  0.00000000E+00  0.00000000E+00
  0.00000000E+00  0.00000000E+00  0.00000000E+00
  0.00000000E+00  0.00000000E+00  0.00000000E+00
  0.00000000E+00  0.00000000E+00  0.00000000E+00
  0.00000000E+00  0.00000000E+00  0.00000000E+00
  0.00000000E+00  0.00000000E+00  0.00000000E+00
  0.00000000E+00  0.00000000E+00  0.00000000E+00
  0.00000000E+00  0.00000000E+00  0.00000000E+00
  0.00000000E+00  0.00000000E+00  0.00000000E+00
  0.00000000E+00  0.00000000E+00  0.00000000E+00
  0.00000000E+00  0.00000000E+00  0.00000000E+00
  0.00000000E+00  0.00000000E+00  0.00000000E+00
  0.00000000E+00  0.00000000E+00  0.00000000E+00
  0.00000000E+00  0.00000000E+00  0.00000000E+00
  0.00000000E+00  0.00000000E+00  0.00000000E+00
  0.00000000E+00  0.00000000E+00  0.00000000E+00
  0.00000000E+00  0.00000000E+00  0.00000000E+00
  0.00000000E+00  0.00000000E+00  0.00000000E+00
  0.00000000E+00  0.00000000E+00  0.00000000E+00
  0.00000000E+00  0.00000000E+00  0.00000000E+00
  0.00000000E+00  0.00000000E+00  0.00000000E+00
  0.00000000E+00  0.00000000E+00  0.00000000E+00
  0.00000000E+00  0.00000000E+00  0.00000000E+00
  0.00000000E+00  0.00000000E+00  0.00000000E+00
  0.00000000E+00  0.00000000E+00  0.00000000E+00
  0.00000000E+00  0.00000000E+00  0.00000000E+00
  0.00000000E+00  0.00000000E+00  0.00000000E+00
  0.00000000E+00  0.00000000E+00  0.00000000E+00
  0.00000000E+00  0.00000000E+00  0.00000000E+00
  0.00000000E+00  0.00000000E+00  0.00000000E+00
  0.00000000E+00  0.00000000E+00  0.00000000E+00
  0.00000000E+00  0.00000000E+00  0.00000000E+00
  0.00000000E+00  0.00000000E+00  0.00000000E+00
  0.00000000E+00  0.00000000E+00  0.00000000E+00
  0.00000000E+00  0.00000000E+00  0.00000000E+00
  0.00000000E+00  0.00000000E+00  0.00000000E+00
  0.00000000E+00  0.00000000E+00  0.00000000E+00
  0.00000000E+00  0.00000000E+00  0.00000000E+00
  0.00000000E+00  0.00000000E+00  0.00000000E+00
  0.00000000E+00  0.00000000E+00  0.00000000E+00
  0.00000000E+00  0.00000000E+00  0.00000000E+00
  0.00000000E+00  0.00000000E+00  0.00000000E+00
  0.00000000E+00  0.00000000E+00  0.00000000E+00
  0.00000000E+00  0.00000000E+00  0.00000000E+00
  0.00000000E+00  0.00000000E+00  0.00000000E+00
  0.00000000E+00  0.00000000E+00  0.00000000E+00
  0.00000000E+00  0.00000000E+00  0.00000000E+00
  0.00000000E+00  0.00000000E+00  0.00000000E+00
  0.00000000E+00  0.00000000E+00  0.00000000E+00
  0.00000000E+00  0.00000000E+00  0.00000000E+00
  0.00000000E+00  0.00000000E+00  0.00000000E+00
  0.00000000E+00  0.00000000E+00  0.00000000E+00
  0.00000000E+00  0.00000000E+00  0.00000000E+00
  0.00000000E+00  0.00000000E+00  0.00000000E+00
  0.00000000E+00  0.00000000E+00  0.00000000E+00
  0.00000000E+00  0.00000000E+00  0.00000000E+00
  0.00000000E+00  0.00000000E+00  0.00000000E+00
  0.00000000E+00  0.00000000E+00  0.00000000E+00
  0.00000000E+00  0.00000000E+00  0.00000000E+00
  0.00000000E+00  0.00000000E+00  0.00000000E+00
  0.00000000E+00  0.00000000E+00  0.00000000E+00
  0.00000000E+00  0.00000000E+00  0.00000000E+00
  0.00000000E+00  0.00000000E+00  0.00000000E+00
  0.00000000E+00  0.00000000E+00  0.00000000E+00
  0.00000000E+00  0.00000000E+00  0.00000000E+00
  0.00000000E+00  0.00000000E+00  0.00000000E+00
  0.00000000E+00  0.00000000E+00  0.00000000E+00
  0.00000000E+00  0.00000000E+00  0.00000000E+00
  0.00000000E+00  0.00000000E+00  0.00000000E+00
  0.00000000E+00  0.00000000E+00  0.00000000E+00
  0.00000000E+00  0.00000000E+00  0.00000000E+00
  0.00000000E+00  0.00000000E+00  0.00000000E+00
  0.00000000E+00  0.00000000E+00  0.00000000E+00
  0.00000000E+00  0.00000000E+00  0.00000000E+00
  0.00000000E+00  0.00000000E+00  0.00000000E+00
  0.00000000E+00  0.00000000E+00  0.00000000E+00
  0.00000000E+00  0.00000000E+00  0.00000000E+00
  0.00000000E+00  0.00000000E+00  0.00000000E+00
  0.00000000E+00  0.00000000E+00  0.00000000E+00
  0.00000000E+00  0.00000000E+00  0.00000000E+00
  0.00000000E+00  0.00000000E+00  0.00000000E+00
  0.00000000E+00  0.00000000E+00  0.00000000E+00
  0.00000000E+00  0.00000000E+00  0.00000000E+00
  0.00000000E+00  0.00000000E+00  0.00000000E+00
  0.00000000E+00  0.00000000E+00  0.00000000E+00
  0.00000000E+00  0.00000000E+00  0.00000000E+00
  0.00000000E+00  0.00000000E+00  0.00000000E+00
  0.00000000E+00  0.00000000E+00  0.00000000E+00
  0.00000000E+00  0.00000000E+00  0.00000000E+00
  0.00000000E+00  0.00000000E+00  0.00000000E+00
  0.00000000E+00  0.00000000E+00  0.00000000E+00
  0.00000000E+00  0.00000000E+00  0.00000000E+00
  0.00000000E+00  0.00000000E+00  0.00000000E+00
  0.00000000E+00  0.00000000E+00  0.00000000E+00
  0.00000000E+00  0.00000000E+00  0.00000000E+00
  0.00000000E+00  0.00000000E+00  0.00000000E+00
  0.00000000E+00  0.00000000E+00  0.00000000E+00
  0.00000000E+00  0.00000000E+00  0.00000000E+00
  0.00000000E+00  0.00000000E+00  0.00000000E+00
  0.00000000E+00  0.00000000E+00  0.00000000E+00
  0.00000000E+00  0.00000000E+00  0.00000000E+00
  0.00000000E+00  0.00000000E+00  0.00000000E+00
  0.00000000E+00  0.00000000E+00  0.00000000E+00
  0.00000000E+00  0.00000000E+00  0.00000000E+00
  0.00000000E+00  0.00000000E+00  0.00000000E+00
  0.00000000E+00  0.00000000E+00  0.00000000E+00
  0.00000000E+00  0.00000000E+00  0.00000000E+00
  0.00000000E+00  0.00000000E+00  0.00000000E+00
  0.00000000E+00  0.00000000E+00  0.00000000E+00
