Global Parameters
ISTART =  0            (Read existing wavefunction, if there)
ISPIN  =  2            (Non-Spin polarised DFT)
# ICHARG =  11         (Non-self-consistent: GGA/LDA band structures)
LREAL  = .FALSE.       (Projection operators: automatic)
ENCUT  =  400        (Cut-off energy for plane wave basis set, in eV)
# PREC   =  Accurate   (Precision level: Normal or Accurate, set Accurate when perform structure lattice relaxation calculation)
LWAVE  = .TRUE.        (Write WAVECAR or not)
LCHARG = .TRUE.        (Write CHGCAR or not)
ADDGRID= .TRUE.        (Increase grid, helps GGA convergence)
LASPH  = .TRUE.        (Give more accurate total energies and band structure calculations)
PREC   = Accurate      (Accurate strictly avoids any aliasing or wrap around errors)
# LVTOT  = .TRUE.      (Write total electrostatic potential into LOCPOT or not)
# LVHAR  = .TRUE.      (Write ionic + Hartree electrostatic potential into LOCPOT or not)
# NELECT =             (No. of electrons: charged cells, be careful)
# LPLANE = .TRUE.      (Real space distribution, supercells)
# NWRITE = 2           (Medium-level output)
# NPAR   = 4
# KPAR   = 2           (Divides k-grid into separate groups)
# NGXF    = 300        (FFT grid mesh density for nice charge/potential plots)
# NGYF    = 300        (FFT grid mesh density for nice charge/potential plots)
# NGZF    = 300        (FFT grid mesh density for nice charge/potential plots)
NGXF = 120
NGYF = 120
NGZF = 392

Frequence Calculations
NSW    =  1            (number of ionic steps. Make it odd.)
ISMEAR =  0            (gaussian smearing method)
SIGMA  =  0.05         (please check the width of the smearing)
IBRION =  5            (frequence calculation)
POTIM  =  0.02         (displacement step)
NFREE  =  2            (displacement freedom)

ALGO = Normal
IVDW  = 11
NELM  = 120
LREAL  = .FALSE.
EDIFF  = 1E-05
EDIFFG = -0.02
NCORE  = 4
KPAR   = 1

#DFT+U Calculation
#LDAU   = .TRUE.        (Activate DFT+U)
#LDATYPE=  2            (Dudarev; only U-J matters)
#LDAUL  =  2 -1 -1 2 -1 -1 -1       (Orbitals for each species)
#LDAUU  =  3.5 0.0 0.0 4.6 0.0 0.0 0.0         (U for each species)
#LDAUJ  =  0.0 0.0 0.0 0.0 0.0 0.0 0.0         (J for each species)
#LMAXMIX=  4            (Mixing cut-off; 4-d, 6-f)

LASPH   = .FALSE.
ADDGRID = .FALSE.
LWAVE   = .FALSE.
LCHARG  = .FALSE.
ISYM  = 0
