Generated by VASPKIT code               
   1.00000000000000     
    10.1502230000000004    0.0000000000000000    0.0000000000000000
    -5.0750975100000000    8.7903671299999999    0.0000000000000000
     0.0000000000000000   -0.0000535100000000   34.9384000000000015
   Mo   N    Si   Ni   O    Te   H 
    12    48    24    12    24     4     1
Selective dynamics
Direct
  0.1668159293874183  0.0000811316171365  0.6097561226926942   F   F   F
  0.1668106185104605  0.5000859494524619  0.6097526401327755   F   F   F
  0.6668066045947896  0.0000788528265119  0.6097584487815197   F   F   F
  0.6668084818830167  0.5001232718535178  0.6097541236500348   F   F   F
  0.3335279347763418  0.3334540962683690  0.6097600923824373   F   F   F
  0.3335705316654440  0.8334623981072937  0.6097570982615892   F   F   F
  0.8335471557871870  0.3334479141140108  0.6097688019250072   F   F   F
  0.8335390715967108  0.8334339800690529  0.6097410525194888   F   F   F
  0.0001490311184043  0.1666840832361913  0.6097628715397221   F   F   F
  0.0001966127372270  0.6667193152446700  0.6097596138954131   F   F   F
  0.5001767192661006  0.1667126438803734  0.6097650315253560   F   F   F
  0.5001803843210908  0.6666994373217463  0.6097348961264117   F   F   F
  0.1672033415451182  0.1671574213566203  0.5738180813195015   F   F   F
  0.1672404317319121  0.6671886916561718  0.5738064476859961   F   F   F
  0.6672250197237020  0.1671969761698548  0.5738111421914454   F   F   F
  0.6672391337806260  0.6671677038311685  0.5737668739276529   F   F   F
  0.1668771765513029  0.1667873163577411  0.6457122546079503   F   F   F
  0.1669111639891767  0.6668051457645063  0.6457090075140002   F   F   F
  0.6668852320435263  0.1668014721212785  0.6457141407243867   F   F   F
  0.6668848473960907  0.6668036357960148  0.6457018527910918   F   F   F
  0.1669028079433659  0.0001271248776362  0.7105536879498402   F   F   F
  0.1669111747097602  0.5001348195159494  0.7105548295909756   F   F   F
  0.6669022705449308  0.0001348622463695  0.7105575530716237   F   F   F
  0.6668795973418042  0.5001193850974204  0.7105560795151433   F   F   F
  0.1659867433010618  0.0001748658723173  0.5092429779557932   F   F   F
  0.1658059417402100  0.5001462075673757  0.5092285181154281   F   F   F
  0.6659224158511989  0.0001912732499747  0.5092284611817419   F   F   F
  0.6659133642625434  0.5000310895403288  0.5092409064302217   F   F   F
  0.3331222650320314  0.0000617868794492  0.5738101746839774   F   F   F
  0.3330174686004881  0.4999799712718342  0.5737886241202617   F   F   F
  0.8330735125996753  0.0000585817700198  0.5738011251299042   F   F   F
  0.8330863874019201  0.5000132325424076  0.5738272149813639   F   F   F
  0.3334802490556257  0.0000835404733976  0.6457152107296196   F   F   F
  0.3334857955085226  0.5001027415827295  0.6457065329765470   F   F   F
  0.8334659228423291  0.0000605025901734  0.6457083994661872   F   F   F
  0.8334665484720034  0.5000925169215193  0.6457151007361048   F   F   F
  0.3335676485729948  0.3334562625522040  0.7105572861276386   F   F   F
  0.3335911397551001  0.8334641124033766  0.7105537944764322   F   F   F
  0.8335685418713865  0.3334656680896089  0.7105590894396911   F   F   F
  0.8335629553223427  0.8334434173580192  0.7105528829617072   F   F   F
  0.3344732721824144  0.3341798649465062  0.5092450786870231   F   F   F
  0.3344835331121701  0.8343297136993328  0.5092215339555324   F   F   F
  0.8344797751365860  0.3342824346424962  0.5092154687615107   F   F   F
  0.8345948694510668  0.8343705896500850  0.5092449762046982   F   F   F
  0.0001861226556557  0.3330069875389299  0.5738150350365743   F   F   F
  0.0002595648079549  0.8330040801621408  0.5738021584802553   F   F   F
  0.5001984389138769  0.3330103539013649  0.5738290328553575   F   F   F
  0.5002098772456307  0.8330583187313323  0.5738059194396001   F   F   F
  0.0001876122074052  0.3333794304602620  0.6457134848442720   F   F   F
  0.0001893804778064  0.8333825307638136  0.6457066460869783   F   F   F
  0.5001866466835878  0.3334030600570870  0.6457148315693999   F   F   F
  0.5001933338545754  0.8333656897317141  0.6457066829730636   F   F   F
  0.0002336512178118  0.1667900955720754  0.7105571542522711   F   F   F
  0.0002357486010141  0.6668006733795266  0.7105560090478704   F   F   F
  0.5002366467481849  0.1668038176565005  0.7105587172988450   F   F   F
  0.5002353171881282  0.6667801460227736  0.7105547354586221   F   F   F
  0.5000759085023887  0.1657769365750710  0.5092194696949122   F   F   F
  0.4999435386298785  0.6656973337111154  0.5092564160050230   F   F   F
  0.0000878377610647  0.1657291498388247  0.5092305490223836   F   F   F
  0.9999774117761504  0.6656113999894231  0.5092277933508953   F   F   F
  0.1669049022114066  0.1668017899268222  0.6960054974401046   F   F   F
  0.1669271411644857  0.6668041199508110  0.6960045654503588   F   F   F
  0.6669050305451094  0.1668077243825223  0.6960046882173501   F   F   F
  0.6669171909488014  0.6668108270012851  0.6960016629392598   F   F   F
  0.1674310534840160  0.1673361173380243  0.5235634118664692   F   F   F
  0.1674514798219988  0.6673943561383098  0.5235594459685444   F   F   F
  0.6674409166475570  0.1673645400204080  0.5235669830573286   F   F   F
  0.6674272672329806  0.6673730260785220  0.5234641101894510   F   F   F
  0.3335493104599507  0.0001159645130997  0.6960060087296043   F   F   F
  0.3335697967687636  0.5001425110403730  0.6960008891189133   F   F   F
  0.8335712059513511  0.0001142537587171  0.6960006854204792   F   F   F
  0.8335631515134594  0.5001304410937308  0.6960003299677666   F   F   F
  0.3328746528155051  0.0000911065263836  0.5235569964432116   F   F   F
  0.3327960801721161  0.4999873007074171  0.5235169475320021   F   F   F
  0.8328740417271661  0.0000434320055689  0.5235423700410777   F   F   F
  0.8327980185752892  0.5000031704761625  0.5235943609610203   F   F   F
  0.0002513473992920  0.3334652833374534  0.6960046100764217   F   F   F
  0.0002053317415047  0.8334417635824352  0.6959982135762317   F   F   F
  0.5002493691113870  0.3334629644227434  0.6960031520512970   F   F   F
  0.5002552878090327  0.8334642549503428  0.6959972402118169   F   F   F
  0.0001441344017721  0.3327086785024918  0.5235698063806282   F   F   F
  0.0002008639084821  0.8327686121532878  0.5235353912316540   F   F   F
  0.5001536700704960  0.3327561062692297  0.5235872658166869   F   F   F
  0.5001745932883281  0.8327546177005942  0.5235425673331164   F   F   F
  0.9997343818957276  0.9996523540952680  0.3501401505467001   F   F   F
  0.9995950636239854  0.4999575068876538  0.3499861320100024   F   F   F
  0.5000639070218895  0.9988115160548787  0.3497883023803325   F   F   F
  0.4999732610554162  0.4875387313381481  0.3479039858094879   F   F   F
  0.9989348260169919  0.9995559850677367  0.4414018970030824   F   F   F
  0.0003496937078680  0.4999835642457029  0.4417194704004643   F   F   F
  0.4999362107621508  0.9985916432116042  0.4414855723978874   F   F   F
  0.4998074027006894  0.5000985663175754  0.4412155044777961   F   F   F
  0.3326984034256029  0.1661581080267354  0.3947396061751789   F   F   F
  0.3335945770442450  0.6653281768043726  0.3954667631720454   F   F   F
  0.8317980382851857  0.1643457710151921  0.3950941348968584   F   F   F
  0.8343833654760928  0.6676876363256099  0.3962931829718954   F   F   F
  0.3148171832334015  0.3220999365521990  0.3623372560972200   F   F   F
  0.3188162683677831  0.8234928159002308  0.3626651917603994   F   F   F
  0.8179310854871602  0.3234596604212214  0.3623467546238075   F   F   F
  0.8195519731535583  0.8238906654740603  0.3632413571885706   F   F   F
  0.1743228167176838  0.4937177202454706  0.3629754318344212   F   F   F
  0.1752850882236032  0.9927105423208786  0.3624638260040243   F   F   F
  0.6807455709110073  0.4998876855107071  0.3632143152666742   F   F   F
  0.6737310888599808  0.9901528654231342  0.3624996125901063   F   F   F
  0.0053115373573718  0.1809748372470494  0.3628235297837321   F   F   F
  0.0056590112757107  0.6809598191031867  0.3630896015736411   F   F   F
  0.5062491683199895  0.1814557973021564  0.3620745206811264   F   F   F
  0.5059913114322754  0.6720051886081109  0.3644079676236274   F   F   F
  0.0040756036818763  0.3232364247591732  0.4277784537940548   F   F   F
  0.0080402246411069  0.8252743133544556  0.4280555152597856   F   F   F
  0.5058950356966321  0.3249932666266986  0.4267896947084608   F   F   F
  0.5056231724126334  0.8231409463100192  0.4279118733290161   F   F   F
  0.1748836568675998  0.1805766201814833  0.4273664327518247   F   F   F
  0.1756496266696459  0.6813712115687593  0.4277671060509434   F   F   F
  0.6742410865898876  0.1804487602066871  0.4272699561015898   F   F   F
  0.6771379858518571  0.6819150980877993  0.4288861735230185   F   F   F
  0.3165924561001248  0.4921602951599695  0.4283418525484137   F   F   F
  0.3197684488127805  0.9944682406190566  0.4272694307212390   F   F   F
  0.8182447106664412  0.4925321382847372  0.4275614998095634   F   F   F
  0.8172085892145233  0.9924789612957099  0.4275203147924245   F   F   F
  0.1653044311886731  0.3333505930323355  0.3954350226123822   F   F   F
  0.1673739091604958  0.8330899789639687  0.3951589009962007   F   F   F
  0.6669249443871266  0.3327344826862699  0.3948761174825322   F   F   F
  0.6650715988787752  0.8295669446848137  0.3952530440467967   F   F   F
  0.4978574950235713  0.3691515988406444  0.3244923512631707   T   T   T
 
  0.00000000E+00  0.00000000E+00  0.00000000E+00
  0.00000000E+00  0.00000000E+00  0.00000000E+00
  0.00000000E+00  0.00000000E+00  0.00000000E+00
  0.00000000E+00  0.00000000E+00  0.00000000E+00
  0.00000000E+00  0.00000000E+00  0.00000000E+00
  0.00000000E+00  0.00000000E+00  0.00000000E+00
  0.00000000E+00  0.00000000E+00  0.00000000E+00
  0.00000000E+00  0.00000000E+00  0.00000000E+00
  0.00000000E+00  0.00000000E+00  0.00000000E+00
  0.00000000E+00  0.00000000E+00  0.00000000E+00
  0.00000000E+00  0.00000000E+00  0.00000000E+00
  0.00000000E+00  0.00000000E+00  0.00000000E+00
  0.00000000E+00  0.00000000E+00  0.00000000E+00
  0.00000000E+00  0.00000000E+00  0.00000000E+00
  0.00000000E+00  0.00000000E+00  0.00000000E+00
  0.00000000E+00  0.00000000E+00  0.00000000E+00
  0.00000000E+00  0.00000000E+00  0.00000000E+00
  0.00000000E+00  0.00000000E+00  0.00000000E+00
  0.00000000E+00  0.00000000E+00  0.00000000E+00
  0.00000000E+00  0.00000000E+00  0.00000000E+00
  0.00000000E+00  0.00000000E+00  0.00000000E+00
  0.00000000E+00  0.00000000E+00  0.00000000E+00
  0.00000000E+00  0.00000000E+00  0.00000000E+00
  0.00000000E+00  0.00000000E+00  0.00000000E+00
  0.00000000E+00  0.00000000E+00  0.00000000E+00
  0.00000000E+00  0.00000000E+00  0.00000000E+00
  0.00000000E+00  0.00000000E+00  0.00000000E+00
  0.00000000E+00  0.00000000E+00  0.00000000E+00
  0.00000000E+00  0.00000000E+00  0.00000000E+00
  0.00000000E+00  0.00000000E+00  0.00000000E+00
  0.00000000E+00  0.00000000E+00  0.00000000E+00
  0.00000000E+00  0.00000000E+00  0.00000000E+00
  0.00000000E+00  0.00000000E+00  0.00000000E+00
  0.00000000E+00  0.00000000E+00  0.00000000E+00
  0.00000000E+00  0.00000000E+00  0.00000000E+00
  0.00000000E+00  0.00000000E+00  0.00000000E+00
  0.00000000E+00  0.00000000E+00  0.00000000E+00
  0.00000000E+00  0.00000000E+00  0.00000000E+00
  0.00000000E+00  0.00000000E+00  0.00000000E+00
  0.00000000E+00  0.00000000E+00  0.00000000E+00
  0.00000000E+00  0.00000000E+00  0.00000000E+00
  0.00000000E+00  0.00000000E+00  0.00000000E+00
  0.00000000E+00  0.00000000E+00  0.00000000E+00
  0.00000000E+00  0.00000000E+00  0.00000000E+00
  0.00000000E+00  0.00000000E+00  0.00000000E+00
  0.00000000E+00  0.00000000E+00  0.00000000E+00
  0.00000000E+00  0.00000000E+00  0.00000000E+00
  0.00000000E+00  0.00000000E+00  0.00000000E+00
  0.00000000E+00  0.00000000E+00  0.00000000E+00
  0.00000000E+00  0.00000000E+00  0.00000000E+00
  0.00000000E+00  0.00000000E+00  0.00000000E+00
  0.00000000E+00  0.00000000E+00  0.00000000E+00
  0.00000000E+00  0.00000000E+00  0.00000000E+00
  0.00000000E+00  0.00000000E+00  0.00000000E+00
  0.00000000E+00  0.00000000E+00  0.00000000E+00
  0.00000000E+00  0.00000000E+00  0.00000000E+00
  0.00000000E+00  0.00000000E+00  0.00000000E+00
  0.00000000E+00  0.00000000E+00  0.00000000E+00
  0.00000000E+00  0.00000000E+00  0.00000000E+00
  0.00000000E+00  0.00000000E+00  0.00000000E+00
  0.00000000E+00  0.00000000E+00  0.00000000E+00
  0.00000000E+00  0.00000000E+00  0.00000000E+00
  0.00000000E+00  0.00000000E+00  0.00000000E+00
  0.00000000E+00  0.00000000E+00  0.00000000E+00
  0.00000000E+00  0.00000000E+00  0.00000000E+00
  0.00000000E+00  0.00000000E+00  0.00000000E+00
  0.00000000E+00  0.00000000E+00  0.00000000E+00
  0.00000000E+00  0.00000000E+00  0.00000000E+00
  0.00000000E+00  0.00000000E+00  0.00000000E+00
  0.00000000E+00  0.00000000E+00  0.00000000E+00
  0.00000000E+00  0.00000000E+00  0.00000000E+00
  0.00000000E+00  0.00000000E+00  0.00000000E+00
  0.00000000E+00  0.00000000E+00  0.00000000E+00
  0.00000000E+00  0.00000000E+00  0.00000000E+00
  0.00000000E+00  0.00000000E+00  0.00000000E+00
  0.00000000E+00  0.00000000E+00  0.00000000E+00
  0.00000000E+00  0.00000000E+00  0.00000000E+00
  0.00000000E+00  0.00000000E+00  0.00000000E+00
  0.00000000E+00  0.00000000E+00  0.00000000E+00
  0.00000000E+00  0.00000000E+00  0.00000000E+00
  0.00000000E+00  0.00000000E+00  0.00000000E+00
  0.00000000E+00  0.00000000E+00  0.00000000E+00
  0.00000000E+00  0.00000000E+00  0.00000000E+00
  0.00000000E+00  0.00000000E+00  0.00000000E+00
  0.00000000E+00  0.00000000E+00  0.00000000E+00
  0.00000000E+00  0.00000000E+00  0.00000000E+00
  0.00000000E+00  0.00000000E+00  0.00000000E+00
  0.00000000E+00  0.00000000E+00  0.00000000E+00
  0.00000000E+00  0.00000000E+00  0.00000000E+00
  0.00000000E+00  0.00000000E+00  0.00000000E+00
  0.00000000E+00  0.00000000E+00  0.00000000E+00
  0.00000000E+00  0.00000000E+00  0.00000000E+00
  0.00000000E+00  0.00000000E+00  0.00000000E+00
  0.00000000E+00  0.00000000E+00  0.00000000E+00
  0.00000000E+00  0.00000000E+00  0.00000000E+00
  0.00000000E+00  0.00000000E+00  0.00000000E+00
  0.00000000E+00  0.00000000E+00  0.00000000E+00
  0.00000000E+00  0.00000000E+00  0.00000000E+00
  0.00000000E+00  0.00000000E+00  0.00000000E+00
  0.00000000E+00  0.00000000E+00  0.00000000E+00
  0.00000000E+00  0.00000000E+00  0.00000000E+00
  0.00000000E+00  0.00000000E+00  0.00000000E+00
  0.00000000E+00  0.00000000E+00  0.00000000E+00
  0.00000000E+00  0.00000000E+00  0.00000000E+00
  0.00000000E+00  0.00000000E+00  0.00000000E+00
  0.00000000E+00  0.00000000E+00  0.00000000E+00
  0.00000000E+00  0.00000000E+00  0.00000000E+00
  0.00000000E+00  0.00000000E+00  0.00000000E+00
  0.00000000E+00  0.00000000E+00  0.00000000E+00
  0.00000000E+00  0.00000000E+00  0.00000000E+00
  0.00000000E+00  0.00000000E+00  0.00000000E+00
  0.00000000E+00  0.00000000E+00  0.00000000E+00
  0.00000000E+00  0.00000000E+00  0.00000000E+00
  0.00000000E+00  0.00000000E+00  0.00000000E+00
  0.00000000E+00  0.00000000E+00  0.00000000E+00
  0.00000000E+00  0.00000000E+00  0.00000000E+00
  0.00000000E+00  0.00000000E+00  0.00000000E+00
  0.00000000E+00  0.00000000E+00  0.00000000E+00
  0.00000000E+00  0.00000000E+00  0.00000000E+00
  0.00000000E+00  0.00000000E+00  0.00000000E+00
  0.00000000E+00  0.00000000E+00  0.00000000E+00
  0.00000000E+00  0.00000000E+00  0.00000000E+00
  0.00000000E+00  0.00000000E+00  0.00000000E+00
  0.00000000E+00  0.00000000E+00  0.00000000E+00
  0.00000000E+00  0.00000000E+00  0.00000000E+00
