Converted by xsd2pos.py                 
   1.00000000000000     
    10.1502230000000004    0.0000000000000000    0.0000000000000000
    -5.0750975100000000    8.7903671299999999    0.0000000000000000
     0.0000000000000000   -0.0000535100000000   34.9384000000000015
   Mo   N    Si   Ni   O    Te   H 
    12    48    24    12    24     4     1
Direct
  0.1666231108769765  0.0000003437922160  0.6098026049963750
  0.1666206918918149  0.5000000033780339  0.6097994472746748
  0.6666210786689462  0.0000017712313181  0.6097981654544284
  0.6666261942747909  0.5000069082144805  0.6097999683396864
  0.3333655528644144  0.3333685221370359  0.6098025737055366
  0.3333697665566220  0.8333648316791198  0.6098000533021519
  0.8333672690510241  0.3333700289492896  0.6097997038839296
  0.8333706722581056  0.8333717384158135  0.6097983094379558
  0.9999842903332308  0.1666223924663015  0.6098005251523730
  0.9999920064673731  0.6666239275009431  0.6097994075399313
  0.4999898362867867  0.1666252779258670  0.6098026538874990
  0.4999887586777589  0.6666207685181078  0.6097979824172768
  0.1670565285994599  0.1671032167245698  0.5738643238728471
  0.1670538823680374  0.6671023515562240  0.5738592011647654
  0.6670456373450619  0.1671129164296872  0.5738618184810846
  0.6670568691586993  0.6670960551862066  0.5738580496429435
  0.1666962621208228  0.1667060379646941  0.6457466108229326
  0.1666997000364461  0.6667065161515566  0.6457453961495929
  0.6666994577210232  0.1667082422291060  0.6457456640813746
  0.6667018669249600  0.6667125583560463  0.6457442795083139
  0.1666615970294956  0.9999978672404453  0.7105814379598598
  0.1666561642535243  0.4999970274396190  0.7105807252464587
  0.6666605708656448  0.0000022054670410  0.7105801310261413
  0.6666590090345181  0.4999980859131483  0.7105803593502742
  0.1657555518397089  0.0001279330189021  0.5093002903499411
  0.1657552432421880  0.5001187129993951  0.5093025243981870
  0.6657455509274612  0.0001257390856608  0.5093132800761495
  0.6657324844652948  0.5000838444789579  0.5093019030961514
  0.3328898138827725  0.9999580188902613  0.5738643376001846
  0.3328770209327843  0.4999346380607861  0.5738612601036053
  0.8328976318556869  0.9999650846159085  0.5738579320331212
  0.8328895875538791  0.4999538729940127  0.5738596796014335
  0.3332853569073819  0.9999909760682897  0.6457464856556001
  0.3332813261556495  0.4999950158071016  0.6457460047651367
  0.8332775039143598  0.9999931141853935  0.6457449956420476
  0.8332849719333595  0.4999948758020523  0.6457450744204465
  0.3333311021060723  0.3333337808641019  0.7105808857149754
  0.3333356268318184  0.8333365710220804  0.7105800964106521
  0.8333348269196179  0.3333367195927295  0.7105800471598585
  0.8333325032463108  0.8333341634430127  0.7105794889356787
  0.3343669487677658  0.3342407557988238  0.5092991800131088
  0.3343457857109371  0.8342633251154936  0.5093018394215250
  0.8343592149209442  0.3342406674748517  0.5093028934145281
  0.8343741296053508  0.8342506271665755  0.5093131665109993
  0.0000363615637085  0.3329372328791607  0.5738598258573475
  0.0000564187913312  0.8329447693602674  0.5738614799625026
  0.5000328856394987  0.3329341803028285  0.5738642134756091
  0.5000286805249416  0.8329351322048666  0.5738579637973515
  0.9999969894095813  0.3332934209236811  0.6457458806755554
  0.9999967512102117  0.8332898268656663  0.6457455764064619
  0.4999998513274946  0.3332968955777531  0.6457464474201515
  0.5000008996637675  0.8332891741595532  0.6457445676728142
  0.9999974906974529  0.1666594691636618  0.7105812194086880
  0.9999972511881410  0.6666611002273797  0.7105798385930129
  0.4999973789959640  0.1666637862279288  0.7105808019369704
  0.4999940267753900  0.6666604505413076  0.7105793932345037
  0.4998707878835447  0.1656286569619354  0.5093000633305280
  0.4998697162748300  0.6656211552964209  0.5093128056909535
  0.9999122242931620  0.1656517713580499  0.5093015897757169
  0.9998756492363228  0.6656371685233111  0.5093022358623926
  0.1666665478745486  0.1666675375642157  0.6960276621539734
  0.1666656655402150  0.6666669150214304  0.6960277395965235
  0.6666670190170194  0.1666675383406968  0.6960270927803123
  0.6666670213870773  0.6666674857477446  0.6960275959100599
  0.1673206594705903  0.1673493352755813  0.5236221226986970
  0.1673087956064947  0.6673375245061735  0.5236115298832260
  0.6673179494970540  0.1673398939372177  0.5236147706754579
  0.6673175590429352  0.6673349120659253  0.5236077278391775
  0.3333289383055487  0.0000000448424657  0.6960270154515413
  0.3333308535431527  0.4999987475528869  0.6960277481023311
  0.8333291587119760  0.9999982995028986  0.6960277098252305
  0.8333317910595852  0.4999993443337232  0.6960277242559414
  0.3326472118163721  0.9999743630743296  0.5236219971273997
  0.3326547407571425  0.4999785894412412  0.5236145301363067
  0.8326654044417623  0.9999865811412292  0.5236073137040194
  0.8326613289305484  0.4999752002743350  0.5236121078887805
  0.9999990480569281  0.3333316801693584  0.6960273945327273
  0.9999979326239412  0.8333289269033486  0.6960277576776193
  0.4999993790619044  0.3333327168013369  0.6960276986056186
  0.4999975758898429  0.8333308604777088  0.6960279472888402
  0.0000229001418717  0.3326853825615075  0.5236124468731660
  0.0000182158083533  0.8326799413974655  0.5236144361385939
  0.5000223686536245  0.3326753574675649  0.5236219811826999
  0.5000110993757403  0.8326773436920902  0.5236077754521773
  0.9995913384773374  0.9998728414796005  0.3501911623876026
  0.9999611033039955  0.4999862874826917  0.3502737757153511
  0.5001187072222351  0.9996974681504867  0.3502135463181517
  0.5002782205232634  0.5004238750545014  0.3502132426608853
  0.0003483210079551  0.0001418429834175  0.4418868978500257
  0.9999937726106154  0.4999919350397448  0.4417976557009027
  0.4998427923453406  0.0001971086533032  0.4418890343999635
  0.4997848264826743  0.4996470098981618  0.4418897995096387
  0.3333176686197703  0.1666588153142072  0.3953891011636230
  0.3332368813758819  0.6666721170523715  0.3957806265934138
  0.8334352808113437  0.1667513211999747  0.3957906696669156
  0.8333124325284658  0.6665496657551344  0.3958011206487058
  0.3185151569521523  0.3248897654290559  0.3628304232072921
  0.3185639299234211  0.8244103344435061  0.3629820700563897
  0.8186216986863215  0.3245190807401030  0.3630089789648423
  0.8185411899400847  0.8248911353840001  0.3634082290833831
  0.1754379061310161  0.4940967839211936  0.3629983951998739
  0.1750985860944425  0.9936218372755690  0.3628313234159748
  0.6755472263759543  0.4941498903153487  0.3630015083198757
  0.6751267750763645  0.9936144505188551  0.3633891088910346
  0.0058192911484056  0.1813955645333749  0.3629830120610649
  0.0058622269171096  0.6813393279877573  0.3630098378087254
  0.5063609927684638  0.1814582649139638  0.3628392144537713
  0.5064147604174991  0.6815511492525701  0.3633727556748241
  0.0064594281421648  0.3247871760630545  0.4279583109218592
  0.0064952974583790  0.8248355595312447  0.4279666168187717
  0.5060228412699459  0.3245804750274814  0.4277887115103027
  0.5059493805221180  0.8245196761027103  0.4282919473078621
  0.1753821176832560  0.1814349026028168  0.4277772898185788
  0.1752010223928337  0.6816526556848572  0.4279545371531270
  0.6751554725674183  0.1816341481655215  0.4279659570818808
  0.6754615927374061  0.6814445479087041  0.4283014375342660
  0.3183563806728458  0.4935141771371931  0.4279535874797133
  0.3185511334715088  0.9939491628890238  0.4277821048517083
  0.8183075365299786  0.4935132821646846  0.4279696201487226
  0.8185479356707646  0.9940267289393105  0.4283000448218175
  0.1666746357093558  0.3333389403775655  0.3953502605164161
  0.1666456437622088  0.8333361816969287  0.3953559973352370
  0.6666398379340706  0.3332892600352437  0.3953651756021301
  0.6666619656579442  0.8333343526357382  0.3959296384969164
  0.6721136186032268  0.8359564062415075  0.2975484659457095
 
  0.00000000E+00  0.00000000E+00  0.00000000E+00
  0.00000000E+00  0.00000000E+00  0.00000000E+00
  0.00000000E+00  0.00000000E+00  0.00000000E+00
  0.00000000E+00  0.00000000E+00  0.00000000E+00
  0.00000000E+00  0.00000000E+00  0.00000000E+00
  0.00000000E+00  0.00000000E+00  0.00000000E+00
  0.00000000E+00  0.00000000E+00  0.00000000E+00
  0.00000000E+00  0.00000000E+00  0.00000000E+00
  0.00000000E+00  0.00000000E+00  0.00000000E+00
  0.00000000E+00  0.00000000E+00  0.00000000E+00
  0.00000000E+00  0.00000000E+00  0.00000000E+00
  0.00000000E+00  0.00000000E+00  0.00000000E+00
  0.00000000E+00  0.00000000E+00  0.00000000E+00
  0.00000000E+00  0.00000000E+00  0.00000000E+00
  0.00000000E+00  0.00000000E+00  0.00000000E+00
  0.00000000E+00  0.00000000E+00  0.00000000E+00
  0.00000000E+00  0.00000000E+00  0.00000000E+00
  0.00000000E+00  0.00000000E+00  0.00000000E+00
  0.00000000E+00  0.00000000E+00  0.00000000E+00
  0.00000000E+00  0.00000000E+00  0.00000000E+00
  0.00000000E+00  0.00000000E+00  0.00000000E+00
  0.00000000E+00  0.00000000E+00  0.00000000E+00
  0.00000000E+00  0.00000000E+00  0.00000000E+00
  0.00000000E+00  0.00000000E+00  0.00000000E+00
  0.00000000E+00  0.00000000E+00  0.00000000E+00
  0.00000000E+00  0.00000000E+00  0.00000000E+00
  0.00000000E+00  0.00000000E+00  0.00000000E+00
  0.00000000E+00  0.00000000E+00  0.00000000E+00
  0.00000000E+00  0.00000000E+00  0.00000000E+00
  0.00000000E+00  0.00000000E+00  0.00000000E+00
  0.00000000E+00  0.00000000E+00  0.00000000E+00
  0.00000000E+00  0.00000000E+00  0.00000000E+00
  0.00000000E+00  0.00000000E+00  0.00000000E+00
  0.00000000E+00  0.00000000E+00  0.00000000E+00
  0.00000000E+00  0.00000000E+00  0.00000000E+00
  0.00000000E+00  0.00000000E+00  0.00000000E+00
  0.00000000E+00  0.00000000E+00  0.00000000E+00
  0.00000000E+00  0.00000000E+00  0.00000000E+00
  0.00000000E+00  0.00000000E+00  0.00000000E+00
  0.00000000E+00  0.00000000E+00  0.00000000E+00
  0.00000000E+00  0.00000000E+00  0.00000000E+00
  0.00000000E+00  0.00000000E+00  0.00000000E+00
  0.00000000E+00  0.00000000E+00  0.00000000E+00
  0.00000000E+00  0.00000000E+00  0.00000000E+00
  0.00000000E+00  0.00000000E+00  0.00000000E+00
  0.00000000E+00  0.00000000E+00  0.00000000E+00
  0.00000000E+00  0.00000000E+00  0.00000000E+00
  0.00000000E+00  0.00000000E+00  0.00000000E+00
  0.00000000E+00  0.00000000E+00  0.00000000E+00
  0.00000000E+00  0.00000000E+00  0.00000000E+00
  0.00000000E+00  0.00000000E+00  0.00000000E+00
  0.00000000E+00  0.00000000E+00  0.00000000E+00
  0.00000000E+00  0.00000000E+00  0.00000000E+00
  0.00000000E+00  0.00000000E+00  0.00000000E+00
  0.00000000E+00  0.00000000E+00  0.00000000E+00
  0.00000000E+00  0.00000000E+00  0.00000000E+00
  0.00000000E+00  0.00000000E+00  0.00000000E+00
  0.00000000E+00  0.00000000E+00  0.00000000E+00
  0.00000000E+00  0.00000000E+00  0.00000000E+00
  0.00000000E+00  0.00000000E+00  0.00000000E+00
  0.00000000E+00  0.00000000E+00  0.00000000E+00
  0.00000000E+00  0.00000000E+00  0.00000000E+00
  0.00000000E+00  0.00000000E+00  0.00000000E+00
  0.00000000E+00  0.00000000E+00  0.00000000E+00
  0.00000000E+00  0.00000000E+00  0.00000000E+00
  0.00000000E+00  0.00000000E+00  0.00000000E+00
  0.00000000E+00  0.00000000E+00  0.00000000E+00
  0.00000000E+00  0.00000000E+00  0.00000000E+00
  0.00000000E+00  0.00000000E+00  0.00000000E+00
  0.00000000E+00  0.00000000E+00  0.00000000E+00
  0.00000000E+00  0.00000000E+00  0.00000000E+00
  0.00000000E+00  0.00000000E+00  0.00000000E+00
  0.00000000E+00  0.00000000E+00  0.00000000E+00
  0.00000000E+00  0.00000000E+00  0.00000000E+00
  0.00000000E+00  0.00000000E+00  0.00000000E+00
  0.00000000E+00  0.00000000E+00  0.00000000E+00
  0.00000000E+00  0.00000000E+00  0.00000000E+00
  0.00000000E+00  0.00000000E+00  0.00000000E+00
  0.00000000E+00  0.00000000E+00  0.00000000E+00
  0.00000000E+00  0.00000000E+00  0.00000000E+00
  0.00000000E+00  0.00000000E+00  0.00000000E+00
  0.00000000E+00  0.00000000E+00  0.00000000E+00
  0.00000000E+00  0.00000000E+00  0.00000000E+00
  0.00000000E+00  0.00000000E+00  0.00000000E+00
  0.00000000E+00  0.00000000E+00  0.00000000E+00
  0.00000000E+00  0.00000000E+00  0.00000000E+00
  0.00000000E+00  0.00000000E+00  0.00000000E+00
  0.00000000E+00  0.00000000E+00  0.00000000E+00
  0.00000000E+00  0.00000000E+00  0.00000000E+00
  0.00000000E+00  0.00000000E+00  0.00000000E+00
  0.00000000E+00  0.00000000E+00  0.00000000E+00
  0.00000000E+00  0.00000000E+00  0.00000000E+00
  0.00000000E+00  0.00000000E+00  0.00000000E+00
  0.00000000E+00  0.00000000E+00  0.00000000E+00
  0.00000000E+00  0.00000000E+00  0.00000000E+00
  0.00000000E+00  0.00000000E+00  0.00000000E+00
  0.00000000E+00  0.00000000E+00  0.00000000E+00
  0.00000000E+00  0.00000000E+00  0.00000000E+00
  0.00000000E+00  0.00000000E+00  0.00000000E+00
  0.00000000E+00  0.00000000E+00  0.00000000E+00
  0.00000000E+00  0.00000000E+00  0.00000000E+00
  0.00000000E+00  0.00000000E+00  0.00000000E+00
  0.00000000E+00  0.00000000E+00  0.00000000E+00
  0.00000000E+00  0.00000000E+00  0.00000000E+00
  0.00000000E+00  0.00000000E+00  0.00000000E+00
  0.00000000E+00  0.00000000E+00  0.00000000E+00
  0.00000000E+00  0.00000000E+00  0.00000000E+00
  0.00000000E+00  0.00000000E+00  0.00000000E+00
  0.00000000E+00  0.00000000E+00  0.00000000E+00
  0.00000000E+00  0.00000000E+00  0.00000000E+00
  0.00000000E+00  0.00000000E+00  0.00000000E+00
  0.00000000E+00  0.00000000E+00  0.00000000E+00
  0.00000000E+00  0.00000000E+00  0.00000000E+00
  0.00000000E+00  0.00000000E+00  0.00000000E+00
  0.00000000E+00  0.00000000E+00  0.00000000E+00
  0.00000000E+00  0.00000000E+00  0.00000000E+00
  0.00000000E+00  0.00000000E+00  0.00000000E+00
  0.00000000E+00  0.00000000E+00  0.00000000E+00
  0.00000000E+00  0.00000000E+00  0.00000000E+00
  0.00000000E+00  0.00000000E+00  0.00000000E+00
  0.00000000E+00  0.00000000E+00  0.00000000E+00
  0.00000000E+00  0.00000000E+00  0.00000000E+00
  0.00000000E+00  0.00000000E+00  0.00000000E+00
  0.00000000E+00  0.00000000E+00  0.00000000E+00
  0.00000000E+00  0.00000000E+00  0.00000000E+00
