Converted by xsd2pos.py
1.0
    10.15022300     0.00000000     0.00000000
    -5.07509751     8.79036713     0.00000000
     0.00000000    -0.00005351    34.93840000
  Mo  N  Si  Ni  O  Te  H
  12  48  24  12  24  4  1
Direct
     0.16662700     0.00000300     0.60990800
     0.16662700     0.50000300     0.60990800
     0.66662700     0.00000300     0.60990800
     0.66662700     0.50000300     0.60990800
     0.33337600     0.33337300     0.60990800
     0.33337600     0.83337300     0.60990800
     0.83337600     0.33337300     0.60990800
     0.83337600     0.83337300     0.60990800
    -0.00000300     0.16662400     0.60990800
    -0.00000300     0.66662400     0.60990800
     0.49999700     0.16662400     0.60990800
     0.49999700     0.66662400     0.60990800
     0.16705400     0.16709400     0.57396600
     0.16705400     0.66709400     0.57396600
     0.66705400     0.16709400     0.57396600
     0.66705400     0.66709400     0.57396600
     0.16671500     0.16671900     0.64584600
     0.16671500     0.66671900     0.64584600
     0.66671500     0.16671900     0.64584600
     0.66671500     0.66671900     0.64584600
     0.16664500     0.00000200     0.71070500
     0.16664500     0.50000200     0.71070500
     0.66664500     0.00000200     0.71070500
     0.66664500     0.50000200     0.71070500
     0.16579400     0.00011400     0.50939600
     0.16579400     0.50011400     0.50939600
     0.66579400     0.00011400     0.50939600
     0.66579400     0.50011400     0.50939600
     0.33290600     0.99996000     0.57396600
     0.33290600     0.49996000     0.57396600
     0.83290600     0.99996000     0.57396600
     0.83290600     0.49996000     0.57396600
     0.33328100    -0.00000500     0.64584600
     0.33328100     0.49999500     0.64584600
     0.83328100    -0.00000500     0.64584600
     0.83328100     0.49999500     0.64584600
     0.33335700     0.33335500     0.71070500
     0.33335700     0.83335500     0.71070500
     0.83335700     0.33335500     0.71070500
     0.83335700     0.83335500     0.71070500
     0.33432000     0.33420600     0.50939600
     0.33432000     0.83420600     0.50939600
     0.83432000     0.33420600     0.50939600
     0.83432000     0.83420600     0.50939600
     0.00004000     0.33294600     0.57396600
     0.00004000     0.83294600     0.57396600
     0.50004000     0.33294600     0.57396600
     0.50004000     0.83294600     0.57396600
     0.00000500     0.33328500     0.64584600
     0.00000500     0.83328500     0.64584600
     0.50000500     0.33328500     0.64584600
     0.50000500     0.83328500     0.64584600
    -0.00000200     0.16664300     0.71070500
    -0.00000200     0.66664300     0.71070500
     0.49999800     0.16664300     0.71070500
     0.49999800     0.66664300     0.71070500
     0.49988600     0.16568000     0.50939600
     0.49988600     0.66568000     0.50939600
     0.99988600     0.16568000     0.50939600
     0.99988600     0.66568000     0.50939600
     0.16665500     0.16665500     0.69612400
     0.16665500     0.66665500     0.69612400
     0.66665500     0.16665500     0.69612400
     0.66665500     0.66665500     0.69612400
     0.16734600     0.16737800     0.52372400
     0.16734600     0.66737800     0.52372400
     0.66734600     0.16737800     0.52372400
     0.66734600     0.66737800     0.52372400
     0.33334500    -0.00000000     0.69612400
     0.33334500     0.50000000     0.69612400
     0.83334500     0.00000000     0.69612400
     0.83334500     0.50000000     0.69612400
     0.33262200    -0.00003200     0.52372400
     0.33262200     0.49996800     0.52372400
     0.83262200    -0.00003200     0.52372400
     0.83262200     0.49996800     0.52372400
    -0.00000100     0.33334500     0.69612400
    -0.00000100     0.83334500     0.69612400
     0.49999900     0.33334500     0.69612400
     0.49999900     0.83334500     0.69612400
     0.00003100     0.33265300     0.52372400
     0.00003100     0.83265300     0.52372400
     0.50003100     0.33265300     0.52372400
     0.50003100     0.83265300     0.52372400
     0.00000000     0.00000000     0.34945100
     0.00000000     0.50000000     0.34945100
     0.50000000    -0.00000000     0.34945100
     0.50000000     0.50000000     0.34945100
     0.00000100     0.00000100     0.44108900
     0.00000100     0.50000100     0.44108900
     0.50000100     0.00000100     0.44108900
     0.50000100     0.50000100     0.44108900
     0.33333300     0.16666600     0.39481200
     0.33333300     0.66666600     0.39481200
     0.83333300     0.16666600     0.39481200
     0.83333300     0.66666600     0.39481200
     0.31846500     0.32466000     0.36219700
     0.31846500     0.82466000     0.36219700
     0.81846500     0.32466000     0.36219700
     0.81846500     0.82466000     0.36219700
     0.17534000     0.49380300     0.36219700
     0.17534000     0.99380300     0.36219700
     0.67534000     0.49380300     0.36219700
     0.67534000     0.99380300     0.36219700
     0.00619700     0.18153600     0.36219700
     0.00619700     0.68153600     0.36219700
     0.50619700     0.18153600     0.36219700
     0.50619700     0.68153600     0.36219700
     0.00625100     0.32480800     0.42718100
     0.00625100     0.82480800     0.42718100
     0.50625100     0.32480800     0.42718100
     0.50625100     0.82480800     0.42718100
     0.17519400     0.18144500     0.42718200
     0.17519400     0.68144500     0.42718200
     0.67519400     0.18144500     0.42718200
     0.67519400     0.68144500     0.42718200
     0.31855700     0.49374900     0.42718100
     0.31855700     0.99374900     0.42718100
     0.81855700     0.49374900     0.42718100
     0.81855700     0.99374900     0.42718100
     0.16666800     0.33333400     0.39464700
     0.16666800     0.83333400     0.39464700
     0.66666800     0.33333400     0.39464700
     0.66666800     0.83333400     0.39464700
     0.67136841     0.83556225     0.32196168
