Converted by xsd2pos.py                 
   1.00000000000000     
    10.1502230000000004    0.0000000000000000    0.0000000000000000
    -5.0750975100000000    8.7903671299999999    0.0000000000000000
     0.0000000000000000   -0.0000535100000000   34.9384000000000015
   Mo   N    Si   Ni   O    Te   H 
    12    48    24    12    24     4     1
Direct
  0.1666736600913055  0.0000457988590981  0.6100613467280027
  0.1663730508692680  0.5002223369677310  0.6099364183199043
  0.6671657126894885  0.0003621066337232  0.6099240370084971
  0.6665002873772181  0.4995513645337297  0.6099254296606347
  0.3336103021964973  0.3331142635207414  0.6099363489992911
  0.3329436106223085  0.8332374107633385  0.6099279191985190
  0.8334340111255898  0.3334135992249259  0.6100612650974071
  0.8337565355123715  0.8339073168121516  0.6099214202260441
  0.0002850688609968  0.1668965243028566  0.6100397554284029
  0.9998238925169503  0.6666520114466508  0.6100352783349976
  0.5000387708308196  0.1664231706925179  0.6100367337070836
  0.5000485635317418  0.6666554235106332  0.6096808897734505
  0.1671698765992176  0.1671218088505739  0.5742155167625782
  0.1667872468502125  0.6671243466039130  0.5741524364610413
  0.6671850060525060  0.1671555994627667  0.5742097836171567
  0.6671530010532507  0.6671278206666926  0.5741190241012646
  0.1670048487340665  0.1669637448409844  0.6460192197218788
  0.1668069042991149  0.6667561877567039  0.6458857267594738
  0.6667888780507667  0.1665575028804156  0.6460112954937571
  0.6651730404125900  0.6667652389305871  0.6458250816486739
  0.1668103724869425  0.0001138014009925  0.7111929355683131
  0.1664699798793876  0.4997204809587714  0.7111416674683397
  0.6668038118957469  0.0005143082207510  0.7111177635218340
  0.6672335508186507  0.5001709897995639  0.7111169070444134
  0.1657624158373139  0.0001129974973750  0.5095713338460186
  0.1657286656117307  0.5001066150877875  0.5095547387699781
  0.6658022877089138  0.0001532458701305  0.5095474598025831
  0.6657772745097503  0.5000622641501806  0.5095502660945215
  0.3328399596560629  0.9999152532340929  0.5742106701727323
  0.3328829776687954  0.4999347372644323  0.5741294674361086
  0.8332644109122356  0.0003155037137574  0.5741482007036893
  0.8328762348588654  0.4998909180664128  0.5742090799600845
  0.3333190873694747  0.9998093342818066  0.6460120135817888
  0.3349948331582269  0.5016814948815949  0.6458554507396030
  0.8333238525729385  0.0000107765154524  0.6458747022378901
  0.8331269498181015  0.5000141110600040  0.6460093926602397
  0.3331027219694178  0.3330954221228168  0.7111400696808801
  0.3335496265636664  0.8338656596042568  0.7111223347330764
  0.8334981229564207  0.3334514476803179  0.7111921010591615
  0.8338815117381415  0.8334324078711859  0.7111137775485048
  0.3343370356828785  0.3341956881986192  0.5095568326405768
  0.3342910298963488  0.8342449270272780  0.5095482970226897
  0.8343517336024391  0.3342379167846943  0.5095722087447214
  0.8343789884980026  0.8342716123665070  0.5095453195308650
  0.0000753666973523  0.3330470905121032  0.5742166946322271
  0.0001107390309514  0.8330576733450457  0.5742080362461195
  0.5000707040014873  0.3326532329712322  0.5741556834906234
  0.5000767972285729  0.8330254928671792  0.5741197830033613
  0.0002764103432398  0.3335799772992445  0.6460190341215082
  0.9998691607406371  0.8333595187635012  0.6460087926098907
  0.5000692351532194  0.3333777709448569  0.6458832319880443
  0.5000806603033183  0.8317391629341273  0.6458303455694221
  0.9996719468359245  0.1662946540665899  0.7110552855060703
  0.0006481025353864  0.6667648589517228  0.7110494339868367
  0.5001388806978397  0.1672650550276842  0.7110505018890549
  0.5002565086596817  0.6668663518448028  0.7120275889230570
  0.4998940413401911  0.1656009795766238  0.5095588436783487
  0.4998899865569939  0.6656647380073508  0.5095167923545674
  0.9999660223825444  0.1657356566506678  0.5095609680567748
  0.9998335553162647  0.6656676688036569  0.5095554655505481
  0.1656969441552789  0.1653668162824076  0.6959346783062514
  0.1664450152902219  0.6667817079470879  0.6956792016341140
  0.6671214844910835  0.1682524300147534  0.6959241422050795
  0.6755411216096761  0.6668179239705552  0.6945888828001401
  0.1673586539994361  0.1673677235569642  0.5239490077319218
  0.1673061246370651  0.6673866984137433  0.5238831780630946
  0.6673780098563284  0.1673979592740622  0.5239428367787724
  0.6673606690470848  0.6673600468450900  0.5238634654322567
  0.3331615153459992  0.0012553984164612  0.6959269818458367
  0.3248536210837116  0.4914758707899267  0.6946303554953559
  0.8339086224867245  0.0005427904018163  0.6956626990404473
  0.8346396034796371  0.4997991551173584  0.6959236626118681
  0.3326020086930797  0.9999839861994104  0.5239443760764360
  0.3326190583843456  0.4999717769888647  0.5238692885088980
  0.8326687575317706  0.0000264248366619  0.5238804330546500
  0.8326365789190717  0.4999656297295942  0.5239425507920714
  0.9987486567283668  0.3323210211628123  0.6959328888930898
  0.0016205022460767  0.8337361218758090  0.6959227661239709
  0.5001541265150706  0.3330518970612317  0.6956743490471240
  0.5001957320718802  0.8421719213750691  0.6945939408384163
  0.0000180682128317  0.3326586489849177  0.5239504340274834
  0.0000327810950367  0.8326675013099489  0.5239408607849256
  0.5000273000214150  0.3326095731667422  0.5238903006343563
  0.5000064448092800  0.8326764151045580  0.5238615340493453
  0.9999945895122835  0.9999918033154245  0.3495726979389602
  0.9999882119732248  0.4999884090923672  0.3495723766862895
  0.4999893406872005  0.9999916888123366  0.3495746747662025
  0.4999831486052884  0.4999940400901934  0.3495725105931982
  0.0000120957578105  0.9999976956648950  0.4410824501641102
  0.9999748225549112  0.4999785420057989  0.4410817357314443
  0.4999924852591278  0.0000155364747485  0.4410820626279417
  0.4999846721357173  0.4999865730093731  0.4410736230806620
  0.3333253354955517  0.1666618410579019  0.3948389044784335
  0.3333196138006045  0.6666585681537711  0.3948399349882266
  0.8333240256495174  0.1666567076053695  0.3948398543494633
  0.8333258389764637  0.6666585001204410  0.3948385655584730
  0.3184327671407061  0.3245354751883411  0.3621596971712862
  0.3184351671261538  0.8245288035780760  0.3621595817825707
  0.8184327515906347  0.3245301778110914  0.3621575712538885
  0.8184328443785418  0.8245346992438272  0.3621605850465315
  0.1754501301998843  0.4938930299483744  0.3621589271381893
  0.1754531903751015  0.9938946496738765  0.3621580630675680
  0.6754411831261464  0.4938938099784167  0.3621586885537269
  0.6754492882565515  0.9938931365477188  0.3621612163199970
  0.0060960710330846  0.1815519089704978  0.3621594271029664
  0.0060939803610154  0.6815483621154144  0.3621595875723784
  0.5060941361523987  0.1815540916392706  0.3621599301507956
  0.5060939924253489  0.6815556967785596  0.3621621928929457
  0.0062668296026658  0.3247928307598400  0.4271405685718364
  0.0062686985864602  0.8247925520164117  0.4271398334999219
  0.5062713201081124  0.3247968107821748  0.4271441275733068
  0.5062702887618897  0.8248046841478782  0.4271468601421233
  0.1752008243896768  0.1814766415579356  0.4271412668973156
  0.1751866747540802  0.6814651751611507  0.4271462107680364
  0.6751990757167334  0.1814779878967485  0.4271413004782048
  0.6751931259098640  0.6814703213479021  0.4271483296501444
  0.3185126145808184  0.4937175587071607  0.4271453776402652
  0.3185111314052449  0.9937148606089323  0.4271417171506116
  0.8185099217032672  0.4937157516684607  0.4271404412085360
  0.8185209225468739  0.9937144866622134  0.4271479038649915
  0.1666651137594002  0.3333326676359150  0.3946172941966282
  0.1666635232700742  0.8333331314535570  0.3946169051440407
  0.6666658019674827  0.3333326076997309  0.3946169855823243
  0.6666671745106214  0.8333338362508655  0.3946175440461417
  0.5005407533726753  0.6670776564552625  0.7415543205702164
 
  0.00000000E+00  0.00000000E+00  0.00000000E+00
  0.00000000E+00  0.00000000E+00  0.00000000E+00
  0.00000000E+00  0.00000000E+00  0.00000000E+00
  0.00000000E+00  0.00000000E+00  0.00000000E+00
  0.00000000E+00  0.00000000E+00  0.00000000E+00
  0.00000000E+00  0.00000000E+00  0.00000000E+00
  0.00000000E+00  0.00000000E+00  0.00000000E+00
  0.00000000E+00  0.00000000E+00  0.00000000E+00
  0.00000000E+00  0.00000000E+00  0.00000000E+00
  0.00000000E+00  0.00000000E+00  0.00000000E+00
  0.00000000E+00  0.00000000E+00  0.00000000E+00
  0.00000000E+00  0.00000000E+00  0.00000000E+00
  0.00000000E+00  0.00000000E+00  0.00000000E+00
  0.00000000E+00  0.00000000E+00  0.00000000E+00
  0.00000000E+00  0.00000000E+00  0.00000000E+00
  0.00000000E+00  0.00000000E+00  0.00000000E+00
  0.00000000E+00  0.00000000E+00  0.00000000E+00
  0.00000000E+00  0.00000000E+00  0.00000000E+00
  0.00000000E+00  0.00000000E+00  0.00000000E+00
  0.00000000E+00  0.00000000E+00  0.00000000E+00
  0.00000000E+00  0.00000000E+00  0.00000000E+00
  0.00000000E+00  0.00000000E+00  0.00000000E+00
  0.00000000E+00  0.00000000E+00  0.00000000E+00
  0.00000000E+00  0.00000000E+00  0.00000000E+00
  0.00000000E+00  0.00000000E+00  0.00000000E+00
  0.00000000E+00  0.00000000E+00  0.00000000E+00
  0.00000000E+00  0.00000000E+00  0.00000000E+00
  0.00000000E+00  0.00000000E+00  0.00000000E+00
  0.00000000E+00  0.00000000E+00  0.00000000E+00
  0.00000000E+00  0.00000000E+00  0.00000000E+00
  0.00000000E+00  0.00000000E+00  0.00000000E+00
  0.00000000E+00  0.00000000E+00  0.00000000E+00
  0.00000000E+00  0.00000000E+00  0.00000000E+00
  0.00000000E+00  0.00000000E+00  0.00000000E+00
  0.00000000E+00  0.00000000E+00  0.00000000E+00
  0.00000000E+00  0.00000000E+00  0.00000000E+00
  0.00000000E+00  0.00000000E+00  0.00000000E+00
  0.00000000E+00  0.00000000E+00  0.00000000E+00
  0.00000000E+00  0.00000000E+00  0.00000000E+00
  0.00000000E+00  0.00000000E+00  0.00000000E+00
  0.00000000E+00  0.00000000E+00  0.00000000E+00
  0.00000000E+00  0.00000000E+00  0.00000000E+00
  0.00000000E+00  0.00000000E+00  0.00000000E+00
  0.00000000E+00  0.00000000E+00  0.00000000E+00
  0.00000000E+00  0.00000000E+00  0.00000000E+00
  0.00000000E+00  0.00000000E+00  0.00000000E+00
  0.00000000E+00  0.00000000E+00  0.00000000E+00
  0.00000000E+00  0.00000000E+00  0.00000000E+00
  0.00000000E+00  0.00000000E+00  0.00000000E+00
  0.00000000E+00  0.00000000E+00  0.00000000E+00
  0.00000000E+00  0.00000000E+00  0.00000000E+00
  0.00000000E+00  0.00000000E+00  0.00000000E+00
  0.00000000E+00  0.00000000E+00  0.00000000E+00
  0.00000000E+00  0.00000000E+00  0.00000000E+00
  0.00000000E+00  0.00000000E+00  0.00000000E+00
  0.00000000E+00  0.00000000E+00  0.00000000E+00
  0.00000000E+00  0.00000000E+00  0.00000000E+00
  0.00000000E+00  0.00000000E+00  0.00000000E+00
  0.00000000E+00  0.00000000E+00  0.00000000E+00
  0.00000000E+00  0.00000000E+00  0.00000000E+00
  0.00000000E+00  0.00000000E+00  0.00000000E+00
  0.00000000E+00  0.00000000E+00  0.00000000E+00
  0.00000000E+00  0.00000000E+00  0.00000000E+00
  0.00000000E+00  0.00000000E+00  0.00000000E+00
  0.00000000E+00  0.00000000E+00  0.00000000E+00
  0.00000000E+00  0.00000000E+00  0.00000000E+00
  0.00000000E+00  0.00000000E+00  0.00000000E+00
  0.00000000E+00  0.00000000E+00  0.00000000E+00
  0.00000000E+00  0.00000000E+00  0.00000000E+00
  0.00000000E+00  0.00000000E+00  0.00000000E+00
  0.00000000E+00  0.00000000E+00  0.00000000E+00
  0.00000000E+00  0.00000000E+00  0.00000000E+00
  0.00000000E+00  0.00000000E+00  0.00000000E+00
  0.00000000E+00  0.00000000E+00  0.00000000E+00
  0.00000000E+00  0.00000000E+00  0.00000000E+00
  0.00000000E+00  0.00000000E+00  0.00000000E+00
  0.00000000E+00  0.00000000E+00  0.00000000E+00
  0.00000000E+00  0.00000000E+00  0.00000000E+00
  0.00000000E+00  0.00000000E+00  0.00000000E+00
  0.00000000E+00  0.00000000E+00  0.00000000E+00
  0.00000000E+00  0.00000000E+00  0.00000000E+00
  0.00000000E+00  0.00000000E+00  0.00000000E+00
  0.00000000E+00  0.00000000E+00  0.00000000E+00
  0.00000000E+00  0.00000000E+00  0.00000000E+00
  0.00000000E+00  0.00000000E+00  0.00000000E+00
  0.00000000E+00  0.00000000E+00  0.00000000E+00
  0.00000000E+00  0.00000000E+00  0.00000000E+00
  0.00000000E+00  0.00000000E+00  0.00000000E+00
  0.00000000E+00  0.00000000E+00  0.00000000E+00
  0.00000000E+00  0.00000000E+00  0.00000000E+00
  0.00000000E+00  0.00000000E+00  0.00000000E+00
  0.00000000E+00  0.00000000E+00  0.00000000E+00
  0.00000000E+00  0.00000000E+00  0.00000000E+00
  0.00000000E+00  0.00000000E+00  0.00000000E+00
  0.00000000E+00  0.00000000E+00  0.00000000E+00
  0.00000000E+00  0.00000000E+00  0.00000000E+00
  0.00000000E+00  0.00000000E+00  0.00000000E+00
  0.00000000E+00  0.00000000E+00  0.00000000E+00
  0.00000000E+00  0.00000000E+00  0.00000000E+00
  0.00000000E+00  0.00000000E+00  0.00000000E+00
  0.00000000E+00  0.00000000E+00  0.00000000E+00
  0.00000000E+00  0.00000000E+00  0.00000000E+00
  0.00000000E+00  0.00000000E+00  0.00000000E+00
  0.00000000E+00  0.00000000E+00  0.00000000E+00
  0.00000000E+00  0.00000000E+00  0.00000000E+00
  0.00000000E+00  0.00000000E+00  0.00000000E+00
  0.00000000E+00  0.00000000E+00  0.00000000E+00
  0.00000000E+00  0.00000000E+00  0.00000000E+00
  0.00000000E+00  0.00000000E+00  0.00000000E+00
  0.00000000E+00  0.00000000E+00  0.00000000E+00
  0.00000000E+00  0.00000000E+00  0.00000000E+00
  0.00000000E+00  0.00000000E+00  0.00000000E+00
  0.00000000E+00  0.00000000E+00  0.00000000E+00
  0.00000000E+00  0.00000000E+00  0.00000000E+00
  0.00000000E+00  0.00000000E+00  0.00000000E+00
  0.00000000E+00  0.00000000E+00  0.00000000E+00
  0.00000000E+00  0.00000000E+00  0.00000000E+00
  0.00000000E+00  0.00000000E+00  0.00000000E+00
  0.00000000E+00  0.00000000E+00  0.00000000E+00
  0.00000000E+00  0.00000000E+00  0.00000000E+00
  0.00000000E+00  0.00000000E+00  0.00000000E+00
  0.00000000E+00  0.00000000E+00  0.00000000E+00
  0.00000000E+00  0.00000000E+00  0.00000000E+00
  0.00000000E+00  0.00000000E+00  0.00000000E+00
  0.00000000E+00  0.00000000E+00  0.00000000E+00
