cif2pos.py                              
   1.00000000000000     
    10.1501999999999999    0.0000000000000000    0.0000000000000000
    -5.0750846599999999    8.7903399100000001    0.0000000000000000
     0.0000000000000000   -0.0000704100000000   34.9384000000000015
   Mo   Si   N    Ni   Te   O 
    12    24    48    12     3    24
Direct
  0.1668613939745143  0.0000758839028592  0.6097880162284284
  0.1669461022764693  0.5001372664574362  0.6097565042284856
  0.6668976115504037  0.0001370688925064  0.6097461412863083
  0.6668081158936019  0.5001316643701443  0.6097959979494334
  0.3335996233469913  0.3335386811174033  0.6097518454882760
  0.3337281079247703  0.8335629738833887  0.6097770497975148
  0.8336720456786324  0.3335257628145243  0.6098204249707209
  0.8336017721747453  0.8334699894847972  0.6097444860295411
  0.0001491272050060  0.1666670290209282  0.6097682068230696
  0.0003135031429977  0.6668163429552649  0.6098031613270791
  0.5002869782648389  0.1669067755180080  0.6097835303347665
  0.5002030317704822  0.6667463205512476  0.6097374695481292
  0.1669156540111700  0.1668024318952845  0.6960078677003949
  0.1669277761647976  0.6668170912415263  0.6960108853981950
  0.6668821777707876  0.1667889270707832  0.6960126369343840
  0.6669369793996225  0.6668185188513789  0.6960059477024956
  0.1676518291874487  0.1673974313235220  0.5236759043067423
  0.1675209504124808  0.6673570202556363  0.5236464596495765
  0.6673709672297221  0.1675789743845826  0.5236368210518307
  0.6674608370982753  0.6672282864221941  0.5235537605306035
  0.3336019163544464  0.0001509087205704  0.6960154487939292
  0.3335759952449564  0.5001326379296245  0.6960077235984556
  0.8335794766763556  0.0001292877488694  0.6960043312537962
  0.8335563822162229  0.5001229169930355  0.6960212062373472
  0.3329974790499861  0.0003677411891232  0.5236561608584154
  0.3330775544694689  0.4998372218475211  0.5233757227211413
  0.8327359887294961  0.9999516882770862  0.5234401972543097
  0.8328577917080935  0.5001660208188881  0.5237903617123436
  0.0002574678096536  0.3334498619377300  0.6960160429637483
  0.0002635283217529  0.8334587766961761  0.6960103580727264
  0.5002363497898656  0.3334791579494549  0.6960105381617652
  0.5002543428029043  0.8334726106459769  0.6960036702048811
  0.0003292821034222  0.3328852064598564  0.5236184889516693
  0.0002964604164717  0.8328784554358819  0.5235059031212970
  0.5000601707495420  0.3329968531426672  0.5234536535871896
  0.5003122737576078  0.8327796668262550  0.5234672569979608
  0.1670806369636892  0.1670153923181701  0.5739041354464973
  0.1673169216998858  0.6672307373002084  0.5738424679388885
  0.6674579568983035  0.1674961069005576  0.5738512519689465
  0.6672521293393601  0.6671137175218576  0.5738318212877331
  0.1668855479659541  0.1668018700190075  0.6457260649080254
  0.1670392087753001  0.6668610777903083  0.6457251225152589
  0.6669870433621696  0.1668702606702510  0.6457310714541791
  0.6669190651145982  0.6668638131650795  0.6457220956788206
  0.1669163121995751  0.0001314164877471  0.7105698300171213
  0.1668914391918577  0.5001147627404947  0.7105595758560384
  0.6669171280288779  0.0001301917521985  0.7105597788054396
  0.6669050802272949  0.5001491372496218  0.7105703143349018
  0.1662232762311220  0.0002428245631165  0.5093991718668178
  0.1659611687528226  0.5002403436585396  0.5090974293284916
  0.6659036385588308  0.0005783479677746  0.5093078193534026
  0.6664129269021188  0.5002048620565702  0.5093265195445369
  0.3333371725228318  0.0001800866205599  0.5738776089357174
  0.3331261793971478  0.5001543136486362  0.5737377078870338
  0.8331234877784937  0.0000438289670441  0.5737616604620683
  0.8332928759285991  0.5000890492530772  0.5739297921085580
  0.3335902202925141  0.0001606717588771  0.6457293775721737
  0.3335299888365242  0.5001452619720155  0.6457037904343252
  0.8335056253544053  0.0000928749049365  0.6457089726305085
  0.8335729224591617  0.5001597477763937  0.6457471132843224
  0.3335718047020748  0.3334667154192914  0.7105612281171929
  0.3335786044806213  0.8334680825516756  0.7105613206353638
  0.8335627537886339  0.3334602981330050  0.7105742177942460
  0.8336225967673414  0.8334920142300319  0.7105653069334963
  0.3341193418606565  0.3338688277687822  0.5093608379163115
  0.3344037363091914  0.8344226331417772  0.5092491090378530
  0.8346514375401455  0.3346674666758886  0.5090757706121920
  0.8344525672793708  0.8341034652388899  0.5092819877984383
  0.0002186022812865  0.3331381468210495  0.5738198797608405
  0.0002788284906501  0.8329348103797685  0.5738017542056326
  0.5003210902382449  0.3331923907692982  0.5738055029502007
  0.5002618774222682  0.8331180672725012  0.5737805618031402
  0.0002944589153770  0.3334168730748175  0.6457228227707148
  0.0002359257119267  0.8334126493254814  0.6457252807007663
  0.5002112822037574  0.3334900666656750  0.6457264347688181
  0.5002913784216148  0.8334437509507779  0.6457022928568321
  0.0002419183321933  0.1667915791292103  0.7105600115817055
  0.0002418381900142  0.6667998029941131  0.7105752525082778
  0.5002299154989416  0.1668035469688647  0.7105654168911713
  0.5002379607554701  0.6668067931473090  0.7105627810055282
  0.5001703966272544  0.1660420034283163  0.5092893961719014
  0.5003761691931388  0.6658419140144218  0.5092170408615786
  0.0002591133726071  0.1659324543331735  0.5092805931699473
  0.0000972598321880  0.6654763044586360  0.5091869763700387
  0.9840462894247537  0.9842360090946940  0.3537950376874122
  0.0011525201755802  0.5031231283328310  0.3513954208688688
  0.5029962334313822  0.9999621585715701  0.3497410922027484
  0.4963479385064815  0.5020245010235129  0.3498632390783669
  0.9935982412588160  0.0010635693305332  0.4410108326066151
  0.9987773302081280  0.4993695387658832  0.4408811823319354
  0.5011256979434719  0.9937761423876452  0.4410923380357161
  0.5150062307098011  0.5173797586753466  0.4366015016399771
  0.3325804726289974  0.1671884230477900  0.3952804702384256
  0.3545325360878380  0.6768274826102214  0.3948595709045648
  0.8209426295394806  0.1440343832176225  0.3950700838141685
  0.8310314539673129  0.6692267009244190  0.3953992337230190
  0.1644702142921730  0.3323312642474079  0.3951151158417048
  0.1677701098784539  0.8343801375454944  0.3962953426339055
  0.6659438150473420  0.3330340732705892  0.3939847289145959
  0.3172052271362986  0.3245939510993878  0.3623448143460308
  0.3181601302300407  0.8246654234522239  0.3628648151065121
  0.8217137521601288  0.3239608711978335  0.3633231076391255
  0.8162195589163659  0.8085127816025732  0.3654740216978141
  0.1747434967202466  0.4951955611366756  0.3631734638621538
  0.1708605367077496  0.9919758909332188  0.3638468847278489
  0.6738393152043187  0.4930946120964848  0.3612999557719832
  0.6813602259332256  0.0119714683485768  0.3579303964195191
  0.0032125061210238  0.1748509681413140  0.3634176548691315
  0.9966527370374223  0.6805933536686126  0.3645914640118875
  0.5042683491530724  0.1785032244666951  0.3621384931888016
  0.4896259480205885  0.6715486795903658  0.3579800143709662
  0.0019194084330678  0.3224646857309352  0.4268955304997490
  0.0078489233059713  0.8262712648452606  0.4289643776380103
  0.5079868167219814  0.3298487190380754  0.4263038078329373
  0.4906512404632366  0.8155465854680983  0.4307244561199965
  0.1738372430739048  0.1807401154742436  0.4276978716507074
  0.1774658306061880  0.6792401814082965  0.4267667167740896
  0.6733171832638689  0.1802518347857642  0.4268218227532188
  0.6932807515890289  0.6844903811601739  0.4254369652734411
  0.3225435656483526  0.4945370448306363  0.4266505184197911
  0.3226346946383316  0.9956356853254746  0.4277865287547513
  0.8203321051801851  0.5019821649179335  0.4256224005149107
  0.8227228849609176  0.0068924732476958  0.4309362746157035
 
  0.00000000E+00  0.00000000E+00  0.00000000E+00
  0.00000000E+00  0.00000000E+00  0.00000000E+00
  0.00000000E+00  0.00000000E+00  0.00000000E+00
  0.00000000E+00  0.00000000E+00  0.00000000E+00
  0.00000000E+00  0.00000000E+00  0.00000000E+00
  0.00000000E+00  0.00000000E+00  0.00000000E+00
  0.00000000E+00  0.00000000E+00  0.00000000E+00
  0.00000000E+00  0.00000000E+00  0.00000000E+00
  0.00000000E+00  0.00000000E+00  0.00000000E+00
  0.00000000E+00  0.00000000E+00  0.00000000E+00
  0.00000000E+00  0.00000000E+00  0.00000000E+00
  0.00000000E+00  0.00000000E+00  0.00000000E+00
  0.00000000E+00  0.00000000E+00  0.00000000E+00
  0.00000000E+00  0.00000000E+00  0.00000000E+00
  0.00000000E+00  0.00000000E+00  0.00000000E+00
  0.00000000E+00  0.00000000E+00  0.00000000E+00
  0.00000000E+00  0.00000000E+00  0.00000000E+00
  0.00000000E+00  0.00000000E+00  0.00000000E+00
  0.00000000E+00  0.00000000E+00  0.00000000E+00
  0.00000000E+00  0.00000000E+00  0.00000000E+00
  0.00000000E+00  0.00000000E+00  0.00000000E+00
  0.00000000E+00  0.00000000E+00  0.00000000E+00
  0.00000000E+00  0.00000000E+00  0.00000000E+00
  0.00000000E+00  0.00000000E+00  0.00000000E+00
  0.00000000E+00  0.00000000E+00  0.00000000E+00
  0.00000000E+00  0.00000000E+00  0.00000000E+00
  0.00000000E+00  0.00000000E+00  0.00000000E+00
  0.00000000E+00  0.00000000E+00  0.00000000E+00
  0.00000000E+00  0.00000000E+00  0.00000000E+00
  0.00000000E+00  0.00000000E+00  0.00000000E+00
  0.00000000E+00  0.00000000E+00  0.00000000E+00
  0.00000000E+00  0.00000000E+00  0.00000000E+00
  0.00000000E+00  0.00000000E+00  0.00000000E+00
  0.00000000E+00  0.00000000E+00  0.00000000E+00
  0.00000000E+00  0.00000000E+00  0.00000000E+00
  0.00000000E+00  0.00000000E+00  0.00000000E+00
  0.00000000E+00  0.00000000E+00  0.00000000E+00
  0.00000000E+00  0.00000000E+00  0.00000000E+00
  0.00000000E+00  0.00000000E+00  0.00000000E+00
  0.00000000E+00  0.00000000E+00  0.00000000E+00
  0.00000000E+00  0.00000000E+00  0.00000000E+00
  0.00000000E+00  0.00000000E+00  0.00000000E+00
  0.00000000E+00  0.00000000E+00  0.00000000E+00
  0.00000000E+00  0.00000000E+00  0.00000000E+00
  0.00000000E+00  0.00000000E+00  0.00000000E+00
  0.00000000E+00  0.00000000E+00  0.00000000E+00
  0.00000000E+00  0.00000000E+00  0.00000000E+00
  0.00000000E+00  0.00000000E+00  0.00000000E+00
  0.00000000E+00  0.00000000E+00  0.00000000E+00
  0.00000000E+00  0.00000000E+00  0.00000000E+00
  0.00000000E+00  0.00000000E+00  0.00000000E+00
  0.00000000E+00  0.00000000E+00  0.00000000E+00
  0.00000000E+00  0.00000000E+00  0.00000000E+00
  0.00000000E+00  0.00000000E+00  0.00000000E+00
  0.00000000E+00  0.00000000E+00  0.00000000E+00
  0.00000000E+00  0.00000000E+00  0.00000000E+00
  0.00000000E+00  0.00000000E+00  0.00000000E+00
  0.00000000E+00  0.00000000E+00  0.00000000E+00
  0.00000000E+00  0.00000000E+00  0.00000000E+00
  0.00000000E+00  0.00000000E+00  0.00000000E+00
  0.00000000E+00  0.00000000E+00  0.00000000E+00
  0.00000000E+00  0.00000000E+00  0.00000000E+00
  0.00000000E+00  0.00000000E+00  0.00000000E+00
  0.00000000E+00  0.00000000E+00  0.00000000E+00
  0.00000000E+00  0.00000000E+00  0.00000000E+00
  0.00000000E+00  0.00000000E+00  0.00000000E+00
  0.00000000E+00  0.00000000E+00  0.00000000E+00
  0.00000000E+00  0.00000000E+00  0.00000000E+00
  0.00000000E+00  0.00000000E+00  0.00000000E+00
  0.00000000E+00  0.00000000E+00  0.00000000E+00
  0.00000000E+00  0.00000000E+00  0.00000000E+00
  0.00000000E+00  0.00000000E+00  0.00000000E+00
  0.00000000E+00  0.00000000E+00  0.00000000E+00
  0.00000000E+00  0.00000000E+00  0.00000000E+00
  0.00000000E+00  0.00000000E+00  0.00000000E+00
  0.00000000E+00  0.00000000E+00  0.00000000E+00
  0.00000000E+00  0.00000000E+00  0.00000000E+00
  0.00000000E+00  0.00000000E+00  0.00000000E+00
  0.00000000E+00  0.00000000E+00  0.00000000E+00
  0.00000000E+00  0.00000000E+00  0.00000000E+00
  0.00000000E+00  0.00000000E+00  0.00000000E+00
  0.00000000E+00  0.00000000E+00  0.00000000E+00
  0.00000000E+00  0.00000000E+00  0.00000000E+00
  0.00000000E+00  0.00000000E+00  0.00000000E+00
  0.00000000E+00  0.00000000E+00  0.00000000E+00
  0.00000000E+00  0.00000000E+00  0.00000000E+00
  0.00000000E+00  0.00000000E+00  0.00000000E+00
  0.00000000E+00  0.00000000E+00  0.00000000E+00
  0.00000000E+00  0.00000000E+00  0.00000000E+00
  0.00000000E+00  0.00000000E+00  0.00000000E+00
  0.00000000E+00  0.00000000E+00  0.00000000E+00
  0.00000000E+00  0.00000000E+00  0.00000000E+00
  0.00000000E+00  0.00000000E+00  0.00000000E+00
  0.00000000E+00  0.00000000E+00  0.00000000E+00
  0.00000000E+00  0.00000000E+00  0.00000000E+00
  0.00000000E+00  0.00000000E+00  0.00000000E+00
  0.00000000E+00  0.00000000E+00  0.00000000E+00
  0.00000000E+00  0.00000000E+00  0.00000000E+00
  0.00000000E+00  0.00000000E+00  0.00000000E+00
  0.00000000E+00  0.00000000E+00  0.00000000E+00
  0.00000000E+00  0.00000000E+00  0.00000000E+00
  0.00000000E+00  0.00000000E+00  0.00000000E+00
  0.00000000E+00  0.00000000E+00  0.00000000E+00
  0.00000000E+00  0.00000000E+00  0.00000000E+00
  0.00000000E+00  0.00000000E+00  0.00000000E+00
  0.00000000E+00  0.00000000E+00  0.00000000E+00
  0.00000000E+00  0.00000000E+00  0.00000000E+00
  0.00000000E+00  0.00000000E+00  0.00000000E+00
  0.00000000E+00  0.00000000E+00  0.00000000E+00
  0.00000000E+00  0.00000000E+00  0.00000000E+00
  0.00000000E+00  0.00000000E+00  0.00000000E+00
  0.00000000E+00  0.00000000E+00  0.00000000E+00
  0.00000000E+00  0.00000000E+00  0.00000000E+00
  0.00000000E+00  0.00000000E+00  0.00000000E+00
  0.00000000E+00  0.00000000E+00  0.00000000E+00
  0.00000000E+00  0.00000000E+00  0.00000000E+00
  0.00000000E+00  0.00000000E+00  0.00000000E+00
  0.00000000E+00  0.00000000E+00  0.00000000E+00
  0.00000000E+00  0.00000000E+00  0.00000000E+00
  0.00000000E+00  0.00000000E+00  0.00000000E+00
  0.00000000E+00  0.00000000E+00  0.00000000E+00
  0.00000000E+00  0.00000000E+00  0.00000000E+00
  0.00000000E+00  0.00000000E+00  0.00000000E+00
