cif2pos.py                              
   1.00000000000000     
    10.1501999999999999    0.0000000000000000    0.0000000000000000
    -5.0750846599999999    8.7903399100000001    0.0000000000000000
     0.0000000000000000   -0.0000704100000000   34.9384000000000015
   Mo   Si   N    Ni   Te   O 
    12    24    48    12     3    24
Direct
  0.1668613939745150  0.0000758839028571  0.6097880162284266
  0.1669461022764691  0.5001372664574355  0.6097565042284839
  0.6668976115504018  0.0001370688925040  0.6097461412863119
  0.6668081158936042  0.5001316643701432  0.6097959979494314
  0.3335996233469919  0.3335386811174052  0.6097518454882754
  0.3337281079247691  0.8335629738833884  0.6097770497975169
  0.8336720456786298  0.3335257628145260  0.6098204249707234
  0.8336017721747474  0.8334699894847942  0.6097444860295390
  0.0001491272050074  0.1666670290209253  0.6097682068230671
  0.0003135031429967  0.6668163429552615  0.6098031613270779
  0.5002869782648424  0.1669067755180051  0.6097835303347642
  0.5002030317704839  0.6667463205512454  0.6097374695481308
  0.1669156540111666  0.1668024318952855  0.6960078677003918
  0.1669277761647957  0.6668170912415280  0.6960108853981950
  0.6668821777707908  0.1667889270707825  0.6960126369343874
  0.6669369793996218  0.6668185188513783  0.6960059477024946
  0.1676518291874484  0.1673974313235215  0.5236759043067425
  0.1675209504124795  0.6673570202556389  0.5236464596495743
  0.6673709672297248  0.1675789743845792  0.5236368210518323
  0.6674608370982749  0.6672282864221912  0.5235537605306021
  0.3336019163544462  0.0001509087205685  0.6960154487939263
  0.3335759952449593  0.5001326379296210  0.6960077235984526
  0.8335794766763542  0.0001292877488662  0.6960043312537949
  0.8335563822162200  0.5001229169930357  0.6960212062373498
  0.3329974790499831  0.0003677411891202  0.5236561608584174
  0.3330775544694670  0.4998372218475188  0.5233757227211410
  0.8327359887294974 -0.0000483117229160  0.5234401972543083
  0.8328577917080964  0.5001660208188898  0.5237903617123418
  0.0002574678096537  0.3334498619377327  0.6960160429637471
  0.0002635283217510  0.8334587766961749  0.6960103580727267
  0.5002363497898679  0.3334791579494567  0.6960105381617641
  0.5002543428029076  0.8334726106459736  0.6960036702048812
  0.0003292821034226  0.3328852064598563  0.5236184889516672
  0.0002964604164745  0.8328784554358817  0.5235059031212947
  0.5000601707495445  0.3329968531426666  0.5234536535871912
  0.5003122737576076  0.8327796668262515  0.5234672569979643
  0.1670806369636915  0.1670153923181681  0.5739041354464978
  0.1673169216998840  0.6672307373002073  0.5738424679388873
  0.6674579568983006  0.1674961069005548  0.5738512519689458
  0.6672521293393616  0.6671137175218593  0.5738318212877337
  0.1668855479659526  0.1668018700190084  0.6457260649080243
  0.1670392087753010  0.6668610777903070  0.6457251225152584
  0.6669870433621702  0.1668702606702494  0.6457310714541776
  0.6669190651146012  0.6668638131650793  0.6457220956788171
  0.1669163121995783  0.0001314164877456  0.7105698300171186
  0.1668914391918604  0.5001147627404913  0.7105595758560400
  0.6669171280288747  0.0001301917522018  0.7105597788054420
  0.6669050802272958  0.5001491372496222  0.7105703143348996
  0.1662232762311197  0.0002428245631186  0.5093991718668177
  0.1659611687528205  0.5002403436585425  0.5090974293284884
  0.6659036385588331  0.0005783479677726  0.5093078193533997
  0.6664129269021160  0.5002048620565722  0.5093265195445361
  0.3333371725228307  0.0001800866205605  0.5738776089357195
  0.3331261793971476  0.5001543136486367  0.5737377078870313
  0.8331234877784941  0.0000438289670466  0.5737616604620677
  0.8332928759285986  0.5000890492530781  0.5739297921085569
  0.3335902202925144  0.0001606717588761  0.6457293775721759
  0.3335299888365262  0.5001452619720184  0.6457037904343274
  0.8335056253544071  0.0000928749049330  0.6457089726305114
  0.8335729224591605  0.5001597477763964  0.6457471132843214
  0.3335718047020760  0.3334667154192884  0.7105612281171934
  0.3335786044806183  0.8334680825516763  0.7105613206353658
  0.8335627537886348  0.3334602981330057  0.7105742177942426
  0.8336225967673395  0.8334920142300295  0.7105653069334956
  0.3341193418606599  0.3338688277687845  0.5093608379163086
  0.3344037363091886  0.8344226331417780  0.5092491090378551
  0.8346514375401489  0.3346674666758890  0.5090757706121923
  0.8344525672793710  0.8341034652388878  0.5092819877984399
  0.0002186022812882  0.3331381468210460  0.5738198797608375
  0.0002788284906519  0.8329348103797649  0.5738017542056352
  0.5003210902382430  0.3331923907692950  0.5738055029502017
  0.5002618774222658  0.8331180672724992  0.5737805618031400
  0.0002944589153775  0.3334168730748143  0.6457228227707174
  0.0002359257119274  0.8334126493254828  0.6457252807007645
  0.5002112822037607  0.3334900666656777  0.6457264347688213
  0.5002913784216152  0.8334437509507812  0.6457022928568349
  0.0002419183321922  0.1667915791292124  0.7105600115817022
  0.0002418381900165  0.6667998029941158  0.7105752525082788
  0.5002299154989401  0.1668035469688633  0.7105654168911734
  0.5002379607554689  0.6668067931473119  0.7105627810055311
  0.5001703966272516  0.1660420034283150  0.5092893961719004
  0.5003761691931377  0.6658419140144229  0.5092170408615756
  0.0002591133726105  0.1659324543331766  0.5092805931699441
  0.0000972598321911  0.6654763044586330  0.5091869763700375
 -0.0159537105752440 -0.0157639909053066  0.3537950376874121
  0.0011525201755808  0.5031231283328339  0.3513954208688694
  0.5029962334313806 -0.0000378414284320  0.3497410922027493
  0.4963479385064815  0.5020245010235164  0.3498632390783694
 -0.0064017587411865  0.0010635693305342  0.4410108326066185
 -0.0012226697918713  0.4993695387658799  0.4408811823319334
  0.5011256979434702 -0.0062238576123522  0.4410923380357156
  0.5150062307098026  0.5173797586753440  0.4366015016399745
  0.3325804726289985  0.1671884230477922  0.3952804702384250
  0.3545325360878395  0.6768274826102223  0.3948595709045654
  0.8209426295394815  0.1440343832176203  0.3950700838141692
  0.8310314539673161  0.6692267009244176  0.3953992337230209
  0.1644702142921713  0.3323312642474075  0.3951151158417026
  0.1677701098784540  0.8343801375454937  0.3962953426339074
  0.6659438150473427  0.3330340732705906  0.3939847289145966
  0.3172052271362983  0.3245939510993853  0.3623448143460313
  0.3181601302300432  0.8246654234522270  0.3628648151065089
  0.8217137521601302  0.3239608711978324  0.3633231076391221
  0.8162195589163629  0.8085127816025727  0.3654740216978123
  0.1747434967202492  0.4951955611366770  0.3631734638621555
  0.1708605367077495  0.9919758909332156  0.3638468847278462
  0.6738393152043158  0.4930946120964849  0.3612999557719849
  0.6813602259332254  0.0119714683485750  0.3579303964195224
  0.0032125061210239  0.1748509681413138  0.3634176548691315
 -0.0033472629625770  0.6805933536686123  0.3645914640118840
  0.5042683491530711  0.1785032244666933  0.3621384931887986
  0.4896259480205917  0.6715486795903659  0.3579800143709656
  0.0019194084330676  0.3224646857309339  0.4268955304997457
  0.0078489233059710  0.8262712648452586  0.4289643776380087
  0.5079868167219823  0.3298487190380734  0.4263038078329350
  0.4906512404632367  0.8155465854681008  0.4307244561199982
  0.1738372430739054  0.1807401154742430  0.4276978716507060
  0.1774658306061880  0.6792401814082979  0.4267667167740882
  0.6733171832638708  0.1802518347857673  0.4268218227532203
  0.6932807515890296  0.6844903811601748  0.4254369652734422
  0.3225435656483561  0.4945370448306353  0.4266505184197921
  0.3226346946383304  0.9956356853254774  0.4277865287547525
  0.8203321051801837  0.5019821649179347  0.4256224005149140
  0.8227228849609205  0.0068924732476960  0.4309362746157052
 
  0.00000000E+00  0.00000000E+00  0.00000000E+00
  0.00000000E+00  0.00000000E+00  0.00000000E+00
  0.00000000E+00  0.00000000E+00  0.00000000E+00
  0.00000000E+00  0.00000000E+00  0.00000000E+00
  0.00000000E+00  0.00000000E+00  0.00000000E+00
  0.00000000E+00  0.00000000E+00  0.00000000E+00
  0.00000000E+00  0.00000000E+00  0.00000000E+00
  0.00000000E+00  0.00000000E+00  0.00000000E+00
  0.00000000E+00  0.00000000E+00  0.00000000E+00
  0.00000000E+00  0.00000000E+00  0.00000000E+00
  0.00000000E+00  0.00000000E+00  0.00000000E+00
  0.00000000E+00  0.00000000E+00  0.00000000E+00
  0.00000000E+00  0.00000000E+00  0.00000000E+00
  0.00000000E+00  0.00000000E+00  0.00000000E+00
  0.00000000E+00  0.00000000E+00  0.00000000E+00
  0.00000000E+00  0.00000000E+00  0.00000000E+00
  0.00000000E+00  0.00000000E+00  0.00000000E+00
  0.00000000E+00  0.00000000E+00  0.00000000E+00
  0.00000000E+00  0.00000000E+00  0.00000000E+00
  0.00000000E+00  0.00000000E+00  0.00000000E+00
  0.00000000E+00  0.00000000E+00  0.00000000E+00
  0.00000000E+00  0.00000000E+00  0.00000000E+00
  0.00000000E+00  0.00000000E+00  0.00000000E+00
  0.00000000E+00  0.00000000E+00  0.00000000E+00
  0.00000000E+00  0.00000000E+00  0.00000000E+00
  0.00000000E+00  0.00000000E+00  0.00000000E+00
  0.00000000E+00  0.00000000E+00  0.00000000E+00
  0.00000000E+00  0.00000000E+00  0.00000000E+00
  0.00000000E+00  0.00000000E+00  0.00000000E+00
  0.00000000E+00  0.00000000E+00  0.00000000E+00
  0.00000000E+00  0.00000000E+00  0.00000000E+00
  0.00000000E+00  0.00000000E+00  0.00000000E+00
  0.00000000E+00  0.00000000E+00  0.00000000E+00
  0.00000000E+00  0.00000000E+00  0.00000000E+00
  0.00000000E+00  0.00000000E+00  0.00000000E+00
  0.00000000E+00  0.00000000E+00  0.00000000E+00
  0.00000000E+00  0.00000000E+00  0.00000000E+00
  0.00000000E+00  0.00000000E+00  0.00000000E+00
  0.00000000E+00  0.00000000E+00  0.00000000E+00
  0.00000000E+00  0.00000000E+00  0.00000000E+00
  0.00000000E+00  0.00000000E+00  0.00000000E+00
  0.00000000E+00  0.00000000E+00  0.00000000E+00
  0.00000000E+00  0.00000000E+00  0.00000000E+00
  0.00000000E+00  0.00000000E+00  0.00000000E+00
  0.00000000E+00  0.00000000E+00  0.00000000E+00
  0.00000000E+00  0.00000000E+00  0.00000000E+00
  0.00000000E+00  0.00000000E+00  0.00000000E+00
  0.00000000E+00  0.00000000E+00  0.00000000E+00
  0.00000000E+00  0.00000000E+00  0.00000000E+00
  0.00000000E+00  0.00000000E+00  0.00000000E+00
  0.00000000E+00  0.00000000E+00  0.00000000E+00
  0.00000000E+00  0.00000000E+00  0.00000000E+00
  0.00000000E+00  0.00000000E+00  0.00000000E+00
  0.00000000E+00  0.00000000E+00  0.00000000E+00
  0.00000000E+00  0.00000000E+00  0.00000000E+00
  0.00000000E+00  0.00000000E+00  0.00000000E+00
  0.00000000E+00  0.00000000E+00  0.00000000E+00
  0.00000000E+00  0.00000000E+00  0.00000000E+00
  0.00000000E+00  0.00000000E+00  0.00000000E+00
  0.00000000E+00  0.00000000E+00  0.00000000E+00
  0.00000000E+00  0.00000000E+00  0.00000000E+00
  0.00000000E+00  0.00000000E+00  0.00000000E+00
  0.00000000E+00  0.00000000E+00  0.00000000E+00
  0.00000000E+00  0.00000000E+00  0.00000000E+00
  0.00000000E+00  0.00000000E+00  0.00000000E+00
  0.00000000E+00  0.00000000E+00  0.00000000E+00
  0.00000000E+00  0.00000000E+00  0.00000000E+00
  0.00000000E+00  0.00000000E+00  0.00000000E+00
  0.00000000E+00  0.00000000E+00  0.00000000E+00
  0.00000000E+00  0.00000000E+00  0.00000000E+00
  0.00000000E+00  0.00000000E+00  0.00000000E+00
  0.00000000E+00  0.00000000E+00  0.00000000E+00
  0.00000000E+00  0.00000000E+00  0.00000000E+00
  0.00000000E+00  0.00000000E+00  0.00000000E+00
  0.00000000E+00  0.00000000E+00  0.00000000E+00
  0.00000000E+00  0.00000000E+00  0.00000000E+00
  0.00000000E+00  0.00000000E+00  0.00000000E+00
  0.00000000E+00  0.00000000E+00  0.00000000E+00
  0.00000000E+00  0.00000000E+00  0.00000000E+00
  0.00000000E+00  0.00000000E+00  0.00000000E+00
  0.00000000E+00  0.00000000E+00  0.00000000E+00
  0.00000000E+00  0.00000000E+00  0.00000000E+00
  0.00000000E+00  0.00000000E+00  0.00000000E+00
  0.00000000E+00  0.00000000E+00  0.00000000E+00
  0.00000000E+00  0.00000000E+00  0.00000000E+00
  0.00000000E+00  0.00000000E+00  0.00000000E+00
  0.00000000E+00  0.00000000E+00  0.00000000E+00
  0.00000000E+00  0.00000000E+00  0.00000000E+00
  0.00000000E+00  0.00000000E+00  0.00000000E+00
  0.00000000E+00  0.00000000E+00  0.00000000E+00
  0.00000000E+00  0.00000000E+00  0.00000000E+00
  0.00000000E+00  0.00000000E+00  0.00000000E+00
  0.00000000E+00  0.00000000E+00  0.00000000E+00
  0.00000000E+00  0.00000000E+00  0.00000000E+00
  0.00000000E+00  0.00000000E+00  0.00000000E+00
  0.00000000E+00  0.00000000E+00  0.00000000E+00
  0.00000000E+00  0.00000000E+00  0.00000000E+00
  0.00000000E+00  0.00000000E+00  0.00000000E+00
  0.00000000E+00  0.00000000E+00  0.00000000E+00
  0.00000000E+00  0.00000000E+00  0.00000000E+00
  0.00000000E+00  0.00000000E+00  0.00000000E+00
  0.00000000E+00  0.00000000E+00  0.00000000E+00
  0.00000000E+00  0.00000000E+00  0.00000000E+00
  0.00000000E+00  0.00000000E+00  0.00000000E+00
  0.00000000E+00  0.00000000E+00  0.00000000E+00
  0.00000000E+00  0.00000000E+00  0.00000000E+00
  0.00000000E+00  0.00000000E+00  0.00000000E+00
  0.00000000E+00  0.00000000E+00  0.00000000E+00
  0.00000000E+00  0.00000000E+00  0.00000000E+00
  0.00000000E+00  0.00000000E+00  0.00000000E+00
  0.00000000E+00  0.00000000E+00  0.00000000E+00
  0.00000000E+00  0.00000000E+00  0.00000000E+00
  0.00000000E+00  0.00000000E+00  0.00000000E+00
  0.00000000E+00  0.00000000E+00  0.00000000E+00
  0.00000000E+00  0.00000000E+00  0.00000000E+00
  0.00000000E+00  0.00000000E+00  0.00000000E+00
  0.00000000E+00  0.00000000E+00  0.00000000E+00
  0.00000000E+00  0.00000000E+00  0.00000000E+00
  0.00000000E+00  0.00000000E+00  0.00000000E+00
  0.00000000E+00  0.00000000E+00  0.00000000E+00
  0.00000000E+00  0.00000000E+00  0.00000000E+00
  0.00000000E+00  0.00000000E+00  0.00000000E+00
  0.00000000E+00  0.00000000E+00  0.00000000E+00
