cif2pos.py                              
   1.00000000000000     
    10.1501999999999999    0.0000000000000000    0.0000000000000000
    -5.0750846599999999    8.7903399100000001    0.0000000000000000
     0.0000000000000000   -0.0000704100000000   34.9384000000000015
   Mo   Si   N    Ni   Te   O 
    12    24    47    12     4    24
Direct
  0.1673908349151176  0.0006519320354244  0.6091161751650063
  0.1664666397048649  0.5006916816187186  0.6090892630190226
  0.6669563487552281  0.9996909964840981  0.6090437681300429
  0.6668172741699792  0.5005536756343574  0.6091059773825265
  0.3335914731065159  0.3338132613810103  0.6090975330148609
  0.3337172570934257  0.8330004593462590  0.6090426667075732
  0.8330787491831515  0.3336773419793602  0.6090895231369871
  0.8339493540959921  0.8345315061688936  0.6091224537016089
  0.0001531757834314  0.1671344468134990  0.6091027038037566
  0.0002578814648473  0.6672332772500624  0.6090722419531005
  0.5002434836898360  0.1667098023958715  0.6090824713152045
  0.5001614519527138  0.6664678924996892  0.6093737699565409
  0.1668716154504395  0.1669455286539048  0.6953975812384954
  0.1667924697256851  0.6668993311648208  0.6954145647629133
  0.6667479530262312  0.1668376429217133  0.6953468555689852
  0.6668699775754234  0.6669727970356831  0.6954570286105763
  0.1688390861509035  0.1708136348583338  0.5228424901308131
  0.1689588491198535  0.6696052773463350  0.5226557445517486
  0.6655426901427575  0.1672498539775518  0.5228118001988733
  0.6734817900710155  0.6825814413570583  0.5229952982247923
  0.3334829420527399  0.0002701521996116  0.6953337445293926
  0.3333900374585852  0.5001927718593038  0.6954258381501575
  0.8335136559188712  0.0003767996557258  0.6954258801571171
  0.8334076223649163  0.5002623086830980  0.6953741806472351
  0.3364164943519228  0.0015050341011857  0.5228400323870801
  0.3267258813039220  0.5058880520976174  0.5229046130390884
  0.8331153493718304  0.0021457138067404  0.5226998169959316
  0.8317372025386618  0.5037672476079820  0.5227395095986296
  0.0001150805160748  0.3336060818766313  0.6953763235929884
  0.0001297296067406  0.8336119545946516  0.6953870990715743
  0.5001268225641766  0.3335846265514775  0.6954088622809564
  0.5001464704286462  0.8335185936976472  0.6954342784635230
  0.9955588050721218  0.3323743040560245  0.5230291742631934
  0.0056623241879166  0.8369706471321336  0.5229980434727963
  0.5003947023152477  0.3380581075982647  0.5229716839742835
  0.5036351130975447  0.8202462890640518  0.5228201331125391
  0.1675725759992019  0.1680741773125050  0.5731470535163794
  0.1675785714277112  0.6678637528139149  0.5730711632143439
  0.6668493760803074  0.1665820481918203  0.5731866819233105
  0.6668874956958319  0.6682982647117726  0.5731812955626907
  0.1670658653003940  0.1671997230542388  0.6450669017554773
  0.1668931054457161  0.6670776779836274  0.6451027960442204
  0.6667353479435292  0.1667564022585850  0.6450507400764920
  0.6673330601991765  0.6672694825842100  0.6451441921946994
  0.1668304291018146  0.0002506559982010  0.7099246885338744
  0.1667066463353279  0.5002934633962894  0.7099753744085930
  0.6667551103443898  0.0002728246642576  0.7099659920043067
  0.6668012260873439  0.5002370829449632  0.7099606039595159
  0.1705049876118920  0.0041634069452812  0.5087239847715779
  0.1568885662990809  0.4983185129667760  0.5080191698288132
  0.6648805377601121  0.9999389307376845  0.5084592202763005
  0.6648597782687062  0.5078444531225159  0.5086544367368973
  0.3337822735219760  0.9996308083904708  0.5731923254873834
  0.3331566249192761  0.5009789931773199  0.5731361816489979
  0.8330916297326141  0.0005234740190971  0.5731150278767103
  0.8326109029459232  0.5009646574887370  0.5730913194327911
  0.3337141046161207  0.0000865087854649  0.6450591772575223
  0.3329062894167834  0.4999494603878034  0.6451388921707419
  0.8335403272959994  0.0004458779336289  0.6451280199435843
  0.8333859705504523  0.5004631589480724  0.6450705562784336
  0.3335010021689939  0.3335842952326189  0.7099680328164766
  0.3335102425714709  0.8335943146780238  0.7099554614714378
  0.8333954844317333  0.3335392589571953  0.7099295268524131
  0.8335128980454840  0.8337227872491937  0.7099762095489908
  0.3349858964155246  0.3403022275305574  0.5086154254412634
  0.3388897073432773  0.8347269565583986  0.5084898671041032
  0.8310950703918536  0.3356658082441015  0.5086946832750741
  0.8449611536760315  0.8425996083287828  0.5079898211935614
  0.9992056678114167  0.3331595572427375  0.5732471564145243
  0.0012309158998036  0.8341710441468351  0.5732550364203917
  0.5003553334335606  0.3337372696634446  0.5732088786813776
  0.5004584919693968  0.8291685193351555  0.5731204791909548
  0.9999424136830513  0.3337584680684174  0.6450737599508614
  0.0005187762983780  0.8339682116044287  0.6450802967993567
  0.5002065602845889  0.3336081117856580  0.6450731527395348
  0.5002610892407944  0.8329609023343494  0.6451316024107427
  0.0002305647548013  0.1670286804446732  0.7099447097883882
  0.0000833818417831  0.6669003831989428  0.7099328051464227
  0.5000988081088167  0.1669097208046466  0.7099486621839546
  0.5001182854109913  0.6668440135755773  0.7100085973634549
  0.5005285202246910  0.1696477133054017  0.5087363453318474
  0.0002221601766408  0.1680533482959632  0.5087491915230586
  0.0012619662156155  0.6684178831904859  0.5087113301956592
  0.9981846725914352  0.9972603917442129  0.3512857423611848
  0.9996810390073776  0.4985413727520083  0.3509904968935942
  0.4989123728355906  0.9982618949786897  0.3509482136970021
  0.4999885459177094  0.4987494752299355  0.3510662624830658
  0.9998897624220220  0.9984383604767331  0.4432739836834543
  0.9996206215932304  0.4981280805130410  0.4431450335002651
  0.4986068718753316  0.9973387369767153  0.4437422122619026
  0.4986940474817132  0.4952280431224310  0.4424014996072501
  0.3327636428359355  0.1646871174016624  0.3958070339976771
  0.3325988086050984  0.6650663739604568  0.3966539935425786
  0.8327394927428955  0.1646652035409133  0.3963166134692742
  0.8326168208481164  0.6645479416106781  0.3968646626973253
  0.1659689987145043  0.3315957758390127  0.3960795020177628
  0.1660053383598878  0.8316472569683384  0.3961440257883027
  0.6662352727312282  0.3308638492246274  0.3960760861964445
  0.6655486099834889  0.8313797643229179  0.3968405007875688
  0.3180581461830769  0.3235587493211867  0.3635437371346484
  0.3180433448804507  0.8223974774591980  0.3638227113736576
  0.8181765972027861  0.3226057963407953  0.3635377136609108
  0.8169243815096934  0.8219829359111657  0.3643946269253462
  0.1751663531482350  0.4925696012024972  0.3637377634610885
  0.1742410896259514  0.9916070346013726  0.3634458566279832
  0.6751146687636052  0.4926115146698891  0.3640275530874675
  0.6731502492108277  0.9908707034486213  0.3642908411259995
  0.0053247106044765  0.1795289723497362  0.3635930222226307
  0.0049565534178271  0.6795104461584245  0.3638297851368080
  0.5060561387573941  0.1804868561527400  0.3631648012863167
  0.5054899717901904  0.6796042715739645  0.3643329015518972
  0.0057617349810855  0.3230868474947428  0.4284347939940858
  0.0059025288472725  0.8233571885817810  0.4286086860880971
  0.5050199989283826  0.3209331615344411  0.4284606896124572
  0.5050288673813768  0.8206186976890706  0.4300794838758009
  0.1749586922360677  0.1795830517789128  0.4282891982414796
  0.1744136620120855  0.6798234969036301  0.4286281392029423
  0.6736714511647079  0.1782089893268406  0.4283469338546126
  0.6730580951793925  0.6788651424416372  0.4298216281982619
  0.3189105627317801  0.4923623672706370  0.4287429218237904
  0.3186898128843225  0.9924693691413111  0.4282272745834916
  0.8177208240480454  0.4911326583956424  0.4286436783754866
  0.8180648643396395  0.9922316834917453  0.4288434445126938
 
  0.00000000E+00  0.00000000E+00  0.00000000E+00
  0.00000000E+00  0.00000000E+00  0.00000000E+00
  0.00000000E+00  0.00000000E+00  0.00000000E+00
  0.00000000E+00  0.00000000E+00  0.00000000E+00
  0.00000000E+00  0.00000000E+00  0.00000000E+00
  0.00000000E+00  0.00000000E+00  0.00000000E+00
  0.00000000E+00  0.00000000E+00  0.00000000E+00
  0.00000000E+00  0.00000000E+00  0.00000000E+00
  0.00000000E+00  0.00000000E+00  0.00000000E+00
  0.00000000E+00  0.00000000E+00  0.00000000E+00
  0.00000000E+00  0.00000000E+00  0.00000000E+00
  0.00000000E+00  0.00000000E+00  0.00000000E+00
  0.00000000E+00  0.00000000E+00  0.00000000E+00
  0.00000000E+00  0.00000000E+00  0.00000000E+00
  0.00000000E+00  0.00000000E+00  0.00000000E+00
  0.00000000E+00  0.00000000E+00  0.00000000E+00
  0.00000000E+00  0.00000000E+00  0.00000000E+00
  0.00000000E+00  0.00000000E+00  0.00000000E+00
  0.00000000E+00  0.00000000E+00  0.00000000E+00
  0.00000000E+00  0.00000000E+00  0.00000000E+00
  0.00000000E+00  0.00000000E+00  0.00000000E+00
  0.00000000E+00  0.00000000E+00  0.00000000E+00
  0.00000000E+00  0.00000000E+00  0.00000000E+00
  0.00000000E+00  0.00000000E+00  0.00000000E+00
  0.00000000E+00  0.00000000E+00  0.00000000E+00
  0.00000000E+00  0.00000000E+00  0.00000000E+00
  0.00000000E+00  0.00000000E+00  0.00000000E+00
  0.00000000E+00  0.00000000E+00  0.00000000E+00
  0.00000000E+00  0.00000000E+00  0.00000000E+00
  0.00000000E+00  0.00000000E+00  0.00000000E+00
  0.00000000E+00  0.00000000E+00  0.00000000E+00
  0.00000000E+00  0.00000000E+00  0.00000000E+00
  0.00000000E+00  0.00000000E+00  0.00000000E+00
  0.00000000E+00  0.00000000E+00  0.00000000E+00
  0.00000000E+00  0.00000000E+00  0.00000000E+00
  0.00000000E+00  0.00000000E+00  0.00000000E+00
  0.00000000E+00  0.00000000E+00  0.00000000E+00
  0.00000000E+00  0.00000000E+00  0.00000000E+00
  0.00000000E+00  0.00000000E+00  0.00000000E+00
  0.00000000E+00  0.00000000E+00  0.00000000E+00
  0.00000000E+00  0.00000000E+00  0.00000000E+00
  0.00000000E+00  0.00000000E+00  0.00000000E+00
  0.00000000E+00  0.00000000E+00  0.00000000E+00
  0.00000000E+00  0.00000000E+00  0.00000000E+00
  0.00000000E+00  0.00000000E+00  0.00000000E+00
  0.00000000E+00  0.00000000E+00  0.00000000E+00
  0.00000000E+00  0.00000000E+00  0.00000000E+00
  0.00000000E+00  0.00000000E+00  0.00000000E+00
  0.00000000E+00  0.00000000E+00  0.00000000E+00
  0.00000000E+00  0.00000000E+00  0.00000000E+00
  0.00000000E+00  0.00000000E+00  0.00000000E+00
  0.00000000E+00  0.00000000E+00  0.00000000E+00
  0.00000000E+00  0.00000000E+00  0.00000000E+00
  0.00000000E+00  0.00000000E+00  0.00000000E+00
  0.00000000E+00  0.00000000E+00  0.00000000E+00
  0.00000000E+00  0.00000000E+00  0.00000000E+00
  0.00000000E+00  0.00000000E+00  0.00000000E+00
  0.00000000E+00  0.00000000E+00  0.00000000E+00
  0.00000000E+00  0.00000000E+00  0.00000000E+00
  0.00000000E+00  0.00000000E+00  0.00000000E+00
  0.00000000E+00  0.00000000E+00  0.00000000E+00
  0.00000000E+00  0.00000000E+00  0.00000000E+00
  0.00000000E+00  0.00000000E+00  0.00000000E+00
  0.00000000E+00  0.00000000E+00  0.00000000E+00
  0.00000000E+00  0.00000000E+00  0.00000000E+00
  0.00000000E+00  0.00000000E+00  0.00000000E+00
  0.00000000E+00  0.00000000E+00  0.00000000E+00
  0.00000000E+00  0.00000000E+00  0.00000000E+00
  0.00000000E+00  0.00000000E+00  0.00000000E+00
  0.00000000E+00  0.00000000E+00  0.00000000E+00
  0.00000000E+00  0.00000000E+00  0.00000000E+00
  0.00000000E+00  0.00000000E+00  0.00000000E+00
  0.00000000E+00  0.00000000E+00  0.00000000E+00
  0.00000000E+00  0.00000000E+00  0.00000000E+00
  0.00000000E+00  0.00000000E+00  0.00000000E+00
  0.00000000E+00  0.00000000E+00  0.00000000E+00
  0.00000000E+00  0.00000000E+00  0.00000000E+00
  0.00000000E+00  0.00000000E+00  0.00000000E+00
  0.00000000E+00  0.00000000E+00  0.00000000E+00
  0.00000000E+00  0.00000000E+00  0.00000000E+00
  0.00000000E+00  0.00000000E+00  0.00000000E+00
  0.00000000E+00  0.00000000E+00  0.00000000E+00
  0.00000000E+00  0.00000000E+00  0.00000000E+00
  0.00000000E+00  0.00000000E+00  0.00000000E+00
  0.00000000E+00  0.00000000E+00  0.00000000E+00
  0.00000000E+00  0.00000000E+00  0.00000000E+00
  0.00000000E+00  0.00000000E+00  0.00000000E+00
  0.00000000E+00  0.00000000E+00  0.00000000E+00
  0.00000000E+00  0.00000000E+00  0.00000000E+00
  0.00000000E+00  0.00000000E+00  0.00000000E+00
  0.00000000E+00  0.00000000E+00  0.00000000E+00
  0.00000000E+00  0.00000000E+00  0.00000000E+00
  0.00000000E+00  0.00000000E+00  0.00000000E+00
  0.00000000E+00  0.00000000E+00  0.00000000E+00
  0.00000000E+00  0.00000000E+00  0.00000000E+00
  0.00000000E+00  0.00000000E+00  0.00000000E+00
  0.00000000E+00  0.00000000E+00  0.00000000E+00
  0.00000000E+00  0.00000000E+00  0.00000000E+00
  0.00000000E+00  0.00000000E+00  0.00000000E+00
  0.00000000E+00  0.00000000E+00  0.00000000E+00
  0.00000000E+00  0.00000000E+00  0.00000000E+00
  0.00000000E+00  0.00000000E+00  0.00000000E+00
  0.00000000E+00  0.00000000E+00  0.00000000E+00
  0.00000000E+00  0.00000000E+00  0.00000000E+00
  0.00000000E+00  0.00000000E+00  0.00000000E+00
  0.00000000E+00  0.00000000E+00  0.00000000E+00
  0.00000000E+00  0.00000000E+00  0.00000000E+00
  0.00000000E+00  0.00000000E+00  0.00000000E+00
  0.00000000E+00  0.00000000E+00  0.00000000E+00
  0.00000000E+00  0.00000000E+00  0.00000000E+00
  0.00000000E+00  0.00000000E+00  0.00000000E+00
  0.00000000E+00  0.00000000E+00  0.00000000E+00
  0.00000000E+00  0.00000000E+00  0.00000000E+00
  0.00000000E+00  0.00000000E+00  0.00000000E+00
  0.00000000E+00  0.00000000E+00  0.00000000E+00
  0.00000000E+00  0.00000000E+00  0.00000000E+00
  0.00000000E+00  0.00000000E+00  0.00000000E+00
  0.00000000E+00  0.00000000E+00  0.00000000E+00
  0.00000000E+00  0.00000000E+00  0.00000000E+00
  0.00000000E+00  0.00000000E+00  0.00000000E+00
  0.00000000E+00  0.00000000E+00  0.00000000E+00
  0.00000000E+00  0.00000000E+00  0.00000000E+00
  0.00000000E+00  0.00000000E+00  0.00000000E+00
