cif2pos.py                              
   1.00000000000000     
    10.1501999999999999    0.0000000000000000    0.0000000000000000
    -5.0750846599999999    8.7903399100000001    0.0000000000000000
     0.0000000000000000   -0.0000704100000000   34.9384000000000015
   Mo   Si   N    Ni   Te   O 
    12    24    47    12     4    24
Direct
  0.1673908349151183  0.0006519320354236  0.6091161751650062
  0.1664666397048628  0.5006916816187211  0.6090892630190211
  0.6669563487552312 -0.0003090035158987  0.6090437681300449
  0.6668172741699774  0.5005536756343549  0.6091059773825293
  0.3335914731065188  0.3338132613810074  0.6090975330148598
  0.3337172570934227  0.8330004593462595  0.6090426667075733
  0.8330787491831546  0.3336773419793627  0.6090895231369895
  0.8339493540959894  0.8345315061688948  0.6091224537016061
  0.0001531757834343  0.1671344468134966  0.6091027038037568
  0.0002578814648439  0.6672332772500653  0.6090722419530992
  0.5002434836898332  0.1667098023958712  0.6090824713152074
  0.5001614519527162  0.6664678924996879  0.6093737699565416
  0.1668716154504422  0.1669455286539077  0.6953975812384960
  0.1667924697256870  0.6668993311648184  0.6954145647629105
  0.6667479530262348  0.1668376429217132  0.6953468555689867
  0.6668699775754214  0.6669727970356858  0.6954570286105778
  0.1688390861509004  0.1708136348583331  0.5228424901308106
  0.1689588491198560  0.6696052773463370  0.5226557445517498
  0.6655426901427559  0.1672498539775535  0.5228118001988710
  0.6734817900710155  0.6825814413570599  0.5229952982247941
  0.3334829420527382  0.0002701521996141  0.6953337445293913
  0.3333900374585861  0.5001927718593006  0.6954258381501546
  0.8335136559188716  0.0003767996557276  0.6954258801571170
  0.8334076223649156  0.5002623086830957  0.6953741806472350
  0.3364164943519242  0.0015050341011829  0.5228400323870814
  0.3267258813039228  0.5058880520976157  0.5229046130390896
  0.8331153493718320  0.0021457138067418  0.5226998169959294
  0.8317372025386621  0.5037672476079851  0.5227395095986284
  0.0001150805160777  0.3336060818766289  0.6953763235929871
  0.0001297296067388  0.8336119545946543  0.6953870990715717
  0.5001268225641734  0.3335846265514744  0.6954088622809541
  0.5001464704286437  0.8335185936976465  0.6954342784635236
 -0.0044411949278753  0.3323743040560229  0.5230291742631965
  0.0056623241879177  0.8369706471321354  0.5229980434727979
  0.5003947023152502  0.3380581075982669  0.5229716839742867
  0.5036351130975424  0.8202462890640523  0.5228201331125382
  0.1675725759992021  0.1680741773125081  0.5731470535163771
  0.1675785714277123  0.6678637528139135  0.5730711632143439
  0.6668493760803083  0.1665820481918169  0.5731866819233115
  0.6668874956958329  0.6682982647117710  0.5731812955626897
  0.1670658653003922  0.1671997230542396  0.6450669017554783
  0.1668931054457147  0.6670776779836269  0.6451027960442210
  0.6667353479435258  0.1667564022585862  0.6450507400764944
  0.6673330601991777  0.6672694825842066  0.6451441921946985
  0.1668304291018178  0.0002506559982029  0.7099246885338715
  0.1667066463353310  0.5002934633962861  0.7099753744085925
  0.6667551103443931  0.0002728246642610  0.7099659920043060
  0.6668012260873452  0.5002370829449662  0.7099606039595174
  0.1705049876118922  0.0041634069452826  0.5087239847715788
  0.1568885662990834  0.4983185129667738  0.5080191698288111
  0.6648805377601128 -0.0000610692623123  0.5084592202762985
  0.6648597782687036  0.5078444531225178  0.5086544367368985
  0.3337822735219771  0.9996308083904694  0.5731923254873864
  0.3331566249192741  0.5009789931773220  0.5731361816489962
  0.8330916297326119  0.0005234740190996  0.5731150278767110
  0.8326109029459242  0.5009646574887378  0.5730913194327879
  0.3337141046161207  0.0000865087854646  0.6450591772575229
  0.3329062894167812  0.4999494603878044  0.6451388921707413
  0.8335403272959979  0.0004458779336303  0.6451280199435856
  0.8333859705504517  0.5004631589480751  0.6450705562784321
  0.3335010021689961  0.3335842952326157  0.7099680328164796
  0.3335102425714739  0.8335943146780268  0.7099554614714357
  0.8333954844317337  0.3335392589571947  0.7099295268524100
  0.8335128980454856  0.8337227872491929  0.7099762095489919
  0.3349858964155271  0.3403022275305585  0.5086154254412663
  0.3388897073432747  0.8347269565583999  0.5084898671041010
  0.8310950703918509  0.3356658082441007  0.5086946832750746
  0.8449611536760350  0.8425996083287863  0.5079898211935603
 -0.0007943321885864  0.3331595572427405  0.5732471564145271
  0.0012309158998023  0.8341710441468374  0.5732550364203923
  0.5003553334335595  0.3337372696634414  0.5732088786813769
  0.5004584919693944  0.8291685193351547  0.5731204791909522
 -0.0000575863169519  0.3337584680684184  0.6450737599508617
  0.0005187762983788  0.8339682116044262  0.6450802967993580
  0.5002065602845867  0.3336081117856550  0.6450731527395346
  0.5002610892407942  0.8329609023343485  0.6451316024107403
  0.0002305647548019  0.1670286804446747  0.7099447097883914
  0.0000833818417799  0.6669003831989421  0.7099328051464224
  0.5000988081088173  0.1669097208046461  0.7099486621839536
  0.5001182854109932  0.6668440135755771  0.7100085973634535
  0.5005285202246909  0.1696477133054030  0.5087363453318454
  0.0002221601766434  0.1680533482959597  0.5087491915230581
  0.0012619662156179  0.6684178831904884  0.5087113301956618
 -0.0018153274085615 -0.0027396082557889  0.3512857423611879
 -0.0003189609926205  0.4985413727520108  0.3509904968935963
  0.4989123728355941 -0.0017381050213138  0.3509482136970014
  0.4999885459177081  0.4987494752299372  0.3510662624830690
 -0.0001102375779781 -0.0015616395232697  0.4432739836834552
 -0.0003793784067703  0.4981280805130381  0.4431450335002644
  0.4986068718753284 -0.0026612630232839  0.4437422122618991
  0.4986940474817120  0.4952280431224284  0.4424014996072467
  0.3327636428359365  0.1646871174016607  0.3958070339976803
  0.3325988086050953  0.6650663739604600  0.3966539935425796
  0.8327394927428959  0.1646652035409128  0.3963166134692748
  0.8326168208481199  0.6645479416106749  0.3968646626973240
  0.1659689987145035  0.3315957758390132  0.3960795020177595
  0.1660053383598871  0.8316472569683395  0.3961440257883011
  0.6662352727312305  0.3308638492246281  0.3960760861964417
  0.6655486099834905  0.8313797643229159  0.3968405007875684
  0.3180581461830773  0.3235587493211846  0.3635437371346497
  0.3180433448804472  0.8223974774591981  0.3638227113736603
  0.8181765972027872  0.3226057963407985  0.3635377136609101
  0.8169243815096946  0.8219829359111683  0.3643946269253430
  0.1751663531482330  0.4925696012024960  0.3637377634610878
  0.1742410896259544  0.9916070346013713  0.3634458566279863
  0.6751146687636086  0.4926115146698897  0.3640275530874676
  0.6731502492108243  0.9908707034486206  0.3642908411259960
  0.0053247106044773  0.1795289723497343  0.3635930222226286
  0.0049565534178270  0.6795104461584270  0.3638297851368080
  0.5060561387573966  0.1804868561527382  0.3631648012863201
  0.5054899717901936  0.6796042715739647  0.3643329015518953
  0.0057617349810876  0.3230868474947394  0.4284347939940876
  0.0059025288472755  0.8233571885817801  0.4286086860880937
  0.5050199989283858  0.3209331615344420  0.4284606896124601
  0.5050288673813771  0.8206186976890741  0.4300794838757987
  0.1749586922360687  0.1795830517789136  0.4282891982414807
  0.1744136620120877  0.6798234969036322  0.4286281392029433
  0.6736714511647067  0.1782089893268435  0.4283469338546115
  0.6730580951793923  0.6788651424416343  0.4298216281982637
  0.3189105627317801  0.4923623672706399  0.4287429218237882
  0.3186898128843220  0.9924693691413129  0.4282272745834930
  0.8177208240480436  0.4911326583956449  0.4286436783754876
  0.8180648643396417  0.9922316834917472  0.4288434445126966
 
  0.00000000E+00  0.00000000E+00  0.00000000E+00
  0.00000000E+00  0.00000000E+00  0.00000000E+00
  0.00000000E+00  0.00000000E+00  0.00000000E+00
  0.00000000E+00  0.00000000E+00  0.00000000E+00
  0.00000000E+00  0.00000000E+00  0.00000000E+00
  0.00000000E+00  0.00000000E+00  0.00000000E+00
  0.00000000E+00  0.00000000E+00  0.00000000E+00
  0.00000000E+00  0.00000000E+00  0.00000000E+00
  0.00000000E+00  0.00000000E+00  0.00000000E+00
  0.00000000E+00  0.00000000E+00  0.00000000E+00
  0.00000000E+00  0.00000000E+00  0.00000000E+00
  0.00000000E+00  0.00000000E+00  0.00000000E+00
  0.00000000E+00  0.00000000E+00  0.00000000E+00
  0.00000000E+00  0.00000000E+00  0.00000000E+00
  0.00000000E+00  0.00000000E+00  0.00000000E+00
  0.00000000E+00  0.00000000E+00  0.00000000E+00
  0.00000000E+00  0.00000000E+00  0.00000000E+00
  0.00000000E+00  0.00000000E+00  0.00000000E+00
  0.00000000E+00  0.00000000E+00  0.00000000E+00
  0.00000000E+00  0.00000000E+00  0.00000000E+00
  0.00000000E+00  0.00000000E+00  0.00000000E+00
  0.00000000E+00  0.00000000E+00  0.00000000E+00
  0.00000000E+00  0.00000000E+00  0.00000000E+00
  0.00000000E+00  0.00000000E+00  0.00000000E+00
  0.00000000E+00  0.00000000E+00  0.00000000E+00
  0.00000000E+00  0.00000000E+00  0.00000000E+00
  0.00000000E+00  0.00000000E+00  0.00000000E+00
  0.00000000E+00  0.00000000E+00  0.00000000E+00
  0.00000000E+00  0.00000000E+00  0.00000000E+00
  0.00000000E+00  0.00000000E+00  0.00000000E+00
  0.00000000E+00  0.00000000E+00  0.00000000E+00
  0.00000000E+00  0.00000000E+00  0.00000000E+00
  0.00000000E+00  0.00000000E+00  0.00000000E+00
  0.00000000E+00  0.00000000E+00  0.00000000E+00
  0.00000000E+00  0.00000000E+00  0.00000000E+00
  0.00000000E+00  0.00000000E+00  0.00000000E+00
  0.00000000E+00  0.00000000E+00  0.00000000E+00
  0.00000000E+00  0.00000000E+00  0.00000000E+00
  0.00000000E+00  0.00000000E+00  0.00000000E+00
  0.00000000E+00  0.00000000E+00  0.00000000E+00
  0.00000000E+00  0.00000000E+00  0.00000000E+00
  0.00000000E+00  0.00000000E+00  0.00000000E+00
  0.00000000E+00  0.00000000E+00  0.00000000E+00
  0.00000000E+00  0.00000000E+00  0.00000000E+00
  0.00000000E+00  0.00000000E+00  0.00000000E+00
  0.00000000E+00  0.00000000E+00  0.00000000E+00
  0.00000000E+00  0.00000000E+00  0.00000000E+00
  0.00000000E+00  0.00000000E+00  0.00000000E+00
  0.00000000E+00  0.00000000E+00  0.00000000E+00
  0.00000000E+00  0.00000000E+00  0.00000000E+00
  0.00000000E+00  0.00000000E+00  0.00000000E+00
  0.00000000E+00  0.00000000E+00  0.00000000E+00
  0.00000000E+00  0.00000000E+00  0.00000000E+00
  0.00000000E+00  0.00000000E+00  0.00000000E+00
  0.00000000E+00  0.00000000E+00  0.00000000E+00
  0.00000000E+00  0.00000000E+00  0.00000000E+00
  0.00000000E+00  0.00000000E+00  0.00000000E+00
  0.00000000E+00  0.00000000E+00  0.00000000E+00
  0.00000000E+00  0.00000000E+00  0.00000000E+00
  0.00000000E+00  0.00000000E+00  0.00000000E+00
  0.00000000E+00  0.00000000E+00  0.00000000E+00
  0.00000000E+00  0.00000000E+00  0.00000000E+00
  0.00000000E+00  0.00000000E+00  0.00000000E+00
  0.00000000E+00  0.00000000E+00  0.00000000E+00
  0.00000000E+00  0.00000000E+00  0.00000000E+00
  0.00000000E+00  0.00000000E+00  0.00000000E+00
  0.00000000E+00  0.00000000E+00  0.00000000E+00
  0.00000000E+00  0.00000000E+00  0.00000000E+00
  0.00000000E+00  0.00000000E+00  0.00000000E+00
  0.00000000E+00  0.00000000E+00  0.00000000E+00
  0.00000000E+00  0.00000000E+00  0.00000000E+00
  0.00000000E+00  0.00000000E+00  0.00000000E+00
  0.00000000E+00  0.00000000E+00  0.00000000E+00
  0.00000000E+00  0.00000000E+00  0.00000000E+00
  0.00000000E+00  0.00000000E+00  0.00000000E+00
  0.00000000E+00  0.00000000E+00  0.00000000E+00
  0.00000000E+00  0.00000000E+00  0.00000000E+00
  0.00000000E+00  0.00000000E+00  0.00000000E+00
  0.00000000E+00  0.00000000E+00  0.00000000E+00
  0.00000000E+00  0.00000000E+00  0.00000000E+00
  0.00000000E+00  0.00000000E+00  0.00000000E+00
  0.00000000E+00  0.00000000E+00  0.00000000E+00
  0.00000000E+00  0.00000000E+00  0.00000000E+00
  0.00000000E+00  0.00000000E+00  0.00000000E+00
  0.00000000E+00  0.00000000E+00  0.00000000E+00
  0.00000000E+00  0.00000000E+00  0.00000000E+00
  0.00000000E+00  0.00000000E+00  0.00000000E+00
  0.00000000E+00  0.00000000E+00  0.00000000E+00
  0.00000000E+00  0.00000000E+00  0.00000000E+00
  0.00000000E+00  0.00000000E+00  0.00000000E+00
  0.00000000E+00  0.00000000E+00  0.00000000E+00
  0.00000000E+00  0.00000000E+00  0.00000000E+00
  0.00000000E+00  0.00000000E+00  0.00000000E+00
  0.00000000E+00  0.00000000E+00  0.00000000E+00
  0.00000000E+00  0.00000000E+00  0.00000000E+00
  0.00000000E+00  0.00000000E+00  0.00000000E+00
  0.00000000E+00  0.00000000E+00  0.00000000E+00
  0.00000000E+00  0.00000000E+00  0.00000000E+00
  0.00000000E+00  0.00000000E+00  0.00000000E+00
  0.00000000E+00  0.00000000E+00  0.00000000E+00
  0.00000000E+00  0.00000000E+00  0.00000000E+00
  0.00000000E+00  0.00000000E+00  0.00000000E+00
  0.00000000E+00  0.00000000E+00  0.00000000E+00
  0.00000000E+00  0.00000000E+00  0.00000000E+00
  0.00000000E+00  0.00000000E+00  0.00000000E+00
  0.00000000E+00  0.00000000E+00  0.00000000E+00
  0.00000000E+00  0.00000000E+00  0.00000000E+00
  0.00000000E+00  0.00000000E+00  0.00000000E+00
  0.00000000E+00  0.00000000E+00  0.00000000E+00
  0.00000000E+00  0.00000000E+00  0.00000000E+00
  0.00000000E+00  0.00000000E+00  0.00000000E+00
  0.00000000E+00  0.00000000E+00  0.00000000E+00
  0.00000000E+00  0.00000000E+00  0.00000000E+00
  0.00000000E+00  0.00000000E+00  0.00000000E+00
  0.00000000E+00  0.00000000E+00  0.00000000E+00
  0.00000000E+00  0.00000000E+00  0.00000000E+00
  0.00000000E+00  0.00000000E+00  0.00000000E+00
  0.00000000E+00  0.00000000E+00  0.00000000E+00
  0.00000000E+00  0.00000000E+00  0.00000000E+00
  0.00000000E+00  0.00000000E+00  0.00000000E+00
  0.00000000E+00  0.00000000E+00  0.00000000E+00
  0.00000000E+00  0.00000000E+00  0.00000000E+00
  0.00000000E+00  0.00000000E+00  0.00000000E+00
