Generated by VASPKIT code
 1.000000
   10.1501999999999999    0.0000000000000000    0.0000000000000000
   -5.0750846599999999    8.7903399100000001    0.0000000000000000
    0.0000000000000000   -0.0000704100000000   34.9384000000000015
   Mo   Si   N    Ni   Te   O    H 
    12    24    48    12     3    24     1
Selective Dynamics
Direct
    0.1666164327482810    0.0000822698707547    0.6096963075060100    F  F  F    Mo001
    0.1664161111749294    0.5000279329072780    0.6098331077036104    F  F  F    Mo002
    0.6665738657292057    0.9999527089720550    0.6096652137996110    F  F  F    Mo003
    0.6664105017707547    0.5000392192251483    0.6098681864449086    F  F  F    Mo004
    0.3331276304586855    0.3333923476966391    0.6097224922916356    F  F  F    Mo005
    0.3333905094038646    0.8335627750603173    0.6097645789081183    F  F  F    Mo006
    0.8331990927479972    0.3333731821793461    0.6098308753415986    F  F  F    Mo007
    0.8333472582609494    0.8334627152532583    0.6097368473403949    F  F  F    Mo008
    0.9998612942468668    0.1665600562430649    0.6097185840667932    F  F  F    Mo009
    0.9998010986994772    0.6667502594112708    0.6098338054763620    F  F  F    Mo010
    0.4999981998737058    0.1667571645201298    0.6097579102817544    F  F  F    Mo011
    0.4997372497080815    0.6666940976400010    0.6097407290383937    F  F  F    Mo012
    0.1666674495052285    0.1669062734504282    0.6959674414948115    F  F  F    Si001
    0.1666293870743510    0.6668660639357034    0.6960113738246961    F  F  F    Si002
    0.6666607516601476    0.1668835919627928    0.6959943562865825    F  F  F    Si003
    0.6666436797163601    0.6668892905818001    0.6960028982356683    F  F  F    Si004
    0.1668448264074917    0.1668525718744549    0.5233212304176308    F  F  F    Si005
    0.1673463439209551    0.6674152732961228    0.5239341244095569    F  F  F    Si006
    0.6667537293236434    0.1671661356243427    0.5234358345484780    F  F  F    Si007
    0.6672107013784739    0.6675039781116823    0.5238930507327577    F  F  F    Si008
    0.3333527681565919    0.0002508643145567    0.6959903586768522    F  F  F    Si009
    0.3332926354940162    0.5002381245388983    0.6960021234279065    F  F  F    Si010
    0.8333277535136122    0.0002197105288694    0.6959636500081133    F  F  F    Si011
    0.8332906830381996    0.5001859512765666    0.6960301830329320    F  F  F    Si012
    0.3326182881980685    0.9999759368640557    0.5234756429008438    F  F  F    Si013
    0.3326026027246686    0.4996638642325987    0.5233942205626445    F  F  F    Si014
    0.8328500415032234    0.0005055964646262    0.5233284047418960    F  F  F    Si015
    0.8323928957989902    0.5000089232034189    0.5239257512893961    F  F  F    Si016
    0.9999545035901625    0.3334897682942523    0.6960136011180458    F  F  F    Si017
    0.9999987469864858    0.8335657146809622    0.6959940292705121    F  F  F    Si018
    0.4999760990637902    0.3335317702808182    0.6960014261517432    F  F  F    Si019
    0.5000014396908731    0.8335944007739148    0.6959796621931231    F  F  F    Si020
    0.9999785046385276    0.3326799592808962    0.5237973141556556    F  F  F    Si021
    0.0001735167384689    0.8331420461301656    0.5233383873730570    F  F  F    Si022
    0.4995123294531620    0.3324260889798744    0.5236675311660270    F  F  F    Si023
    0.4994600964225326    0.8325983591811635    0.5232875213635585    F  F  F    Si024
    0.1669494401954142    0.1669587122773120    0.5737680105712997    F  F  F     N001
    0.1663259378066158    0.6667626237321851    0.5740200711208979    F  F  F     N002
    0.6673030619644384    0.1674211580308358    0.5737230153067326    F  F  F     N003
    0.6670075622302674    0.6669738500435445    0.5739482008650723    F  F  F     N004
    0.1665747014224412    0.1667144462166135    0.6456756920003781    F  F  F     N005
    0.1666066276772264    0.6668639663575477    0.6457541350890658    F  F  F     N006
    0.6666280854341184    0.1666496746165951    0.6456978834817166    F  F  F     N007
    0.6665671301932109    0.6668776982534012    0.6457302737802421    F  F  F     N008
    0.1666819316237854    0.0002400437915184    0.7105350759858156    F  F  F     N009
    0.1666130386375163    0.5001773299771567    0.7105728493153831    F  F  F     N010
    0.6666835962941069    0.0002010532927700    0.7105396740122927    F  F  F     N011
    0.6666048593276921    0.5002080585098706    0.7105755751962978    F  F  F     N012
    0.1659296917185534    0.9997906334946393    0.5093171758892836    F  F  F     N013
    0.1652661562165645    0.5002399129974973    0.5092499634726521    F  F  F     N014
    0.6654727229337182    0.0001498339060108    0.5091436311645775    F  F  F     N015
    0.6657665297351641    0.5003650618661168    0.5090996416841430    F  F  F     N016
    0.3331881792448689    0.0003537204128768    0.5738487583518631    F  F  F     N017
    0.3325506889327970    0.5000529433022292    0.5737352076025367    F  F  F     N018
    0.8327432812922584    0.9996989712808252    0.5737002968715395    F  F  F     N019
    0.8326980585308308    0.5000382624976862    0.5739338763373306    F  F  F     N020
    0.3333148506595067    0.0001774481599040    0.6457024987087373    F  F  F     N021
    0.3331272331788587    0.5000602247773317    0.6457081144011969    F  F  F     N022
    0.8332015479085427    0.0000188759921397    0.6456677571317345    F  F  F     N023
    0.8331180128358188    0.5000569565435409    0.6457702365607495    F  F  F     N024
    0.3332942967445640    0.3335408479178809    0.7105521750404306    F  F  F     N025
    0.3333504941176248    0.8335610579099785    0.7105495443435366    F  F  F     N026
    0.8333019958713411    0.3335045559647630    0.7105751089031352    F  F  F     N027
    0.8333310652947183    0.8335634207974182    0.7105459764102638    F  F  F     N028
    0.3341604155112175    0.3338177499377779    0.5093699024679889    F  F  F     N029
    0.3329723914698938    0.8335355924877310    0.5097912255727234    F  F  F     N030
    0.8343992362495175    0.3349696566041907    0.5089345748536261    F  F  F     N031
    0.8336874452355791    0.8338809891522280    0.5089664294033490    F  F  F     N032
    0.9996636645655720    0.3333695253354419    0.5739473919857708    F  F  F     N033
    0.9997040451263692    0.8325738717949039    0.5736614619262669    F  F  F     N034
    0.5002007466906467    0.3333610054596919    0.5738794605811477    F  F  F     N035
    0.4999407186300002    0.8328648544539178    0.5737041648344572    F  F  F     N036
    0.9998218988617260    0.3332421417066668    0.6457448228624217    F  F  F     N037
    0.9999431563045008    0.8334699603559975    0.6456992186622330    F  F  F     N038
    0.4997937697387675    0.3333372764572520    0.6457339046499422    F  F  F     N039
    0.5000028248579622    0.8334408205157476    0.6456813848402835    F  F  F     N040
    0.9999947212722742    0.1668195102361086    0.7105458469188117    F  F  F     N041
    0.9999602637392107    0.6668782525615444    0.7105724435904633    F  F  F     N042
    0.5000177551517084    0.1668773434745073    0.7105586913997571    F  F  F     N043
    0.4999466889551561    0.6668756981871641    0.7105494539236650    F  F  F     N044
    0.4998591604459622    0.1661090032777850    0.5092841835432245    F  F  F     N045
    0.5003159958587232    0.6654266398620262    0.5092418535824889    F  F  F     N046
    0.9999863287021746    0.1667114718408740    0.5096996116630161    F  F  F     N047
    0.9995445950895570    0.6648906598725343    0.5089054440064646    F  F  F     N048
    0.9839669827123662    0.9907646555217039    0.3536618042762831    F  F  F    Ni001
    0.0085500786950532    0.4967907997256368    0.3529502367312837    F  F  F    Ni002
    0.5017906941379399    0.9937919151905257    0.3499594625061853    F  F  F    Ni003
    0.4993605807134837    0.5102549972402396    0.3532107932256812    F  F  F    Ni004
    0.9698832898447910    0.9837604653911758    0.4357266619848544    F  F  F    Ni005
    0.9948761262709884    0.5030268290430129    0.4427338443856608    F  F  F    Ni006
    0.5121067629721862    0.9911483831734449    0.4373609478648448    F  F  F    Ni007
    0.5174846032143390    0.5129693612511693    0.4404806923240133    F  F  F    Ni008
    0.3310163920657640    0.1626493110086529    0.3964578878632469    F  F  F    Ni009
    0.3457337556783774    0.6692185592240097    0.3991075397719550    F  F  F    Ni010
    0.8302729942053046    0.1612535760364284    0.3960215022365400    F  F  F    Ni011
    0.8285677304721003    0.6692609747019894    0.3921662669313348    F  F  F    Ni012
    0.1692136065483684    0.3308118416119938    0.3988114945491233    F  F  F    Te001
    0.1684220300664367    0.8329854868823404    0.3954868912582584    F  F  F    Te002
    0.6634061244009870    0.3323223582717607    0.3937603103575448    F  F  F    Te003
    0.3203325965692235    0.3249321729311647    0.3655079826926305    F  F  F     O001
    0.3184110326232170    0.8193493589544824    0.3631596539702752    F  F  F     O002
    0.8233325445092855    0.3176932422341687    0.3644073539184701    F  F  F     O003
    0.8323039552271060    0.8050599900483418    0.3579096511143866    F  F  F     O004
    0.1907095393255044    0.5029530271241068    0.3669627664520669    F  F  F     O005
    0.1718864252029265    0.9927356936707226    0.3639027217129669    F  F  F     O006
    0.6728590646154896    0.4882848492019307    0.3597303739031094    F  F  F     O007
    0.6838731982438330    0.9998645955573050    0.3607208991252353    F  F  F     O008
    0.0073837602564996    0.1837979068748491    0.3650416472162416    F  F  F     O009
    0.0016911600095189    0.6741530274850043    0.3643419788849834    F  F  F     O010
    0.5046245284311242    0.1762383706117764    0.3624983454474051    F  F  F     O011
    0.5057637594509544    0.6817052626217504    0.3711269047906942    F  F  F     O012
    0.0028621657125170    0.3280229322885219    0.4279247334986003    F  F  F     O013
    0.0055731681873446    0.8210841254760513    0.4276180607533038    F  F  F     O014
    0.5075075768430259    0.3260010783079367    0.4270680624514587    F  F  F     O015
    0.4785949628563068    0.8060851065384146    0.4325669689878864    F  F  F     O016
    0.1659264086987868    0.1695524645271886    0.4292667815467640    F  F  F     O017
    0.1784241141092016    0.6766162734818025    0.4267989822068261    F  F  F     O018
    0.6780442676320531    0.1849049566404611    0.4269022472324220    F  F  F     O019
    0.6830667828329009    0.6807543481183497    0.4208801736252084    F  F  F     O020
    0.3216513862587894    0.4891019837609901    0.4316245601396618    F  F  F     O021
    0.3261187118062701    0.9927352229812607    0.4270801311398345    F  F  F     O022
    0.8177996171925297    0.5039168222349737    0.4244037427553358    F  F  F     O023
    0.8216282558963445    0.0214156374024483    0.4285603527891088    F  F  F     O024
    0.6616636462107794    0.8978236833154346    0.3696279409296074    T  T  T     H001
