Generated by VASPKIT code
 1.000000
   10.1502230000000004    0.0000000000000000    0.0000000000000000
   -5.0750975100000000    8.7903671299999999    0.0000000000000000
    0.0000000000000000   -0.0000535100000000   34.9384000000000015
   Mo   N    Si   Ni   O    Te   H 
    12    48    24    12    24     4     1
Selective Dynamics
Direct
    0.1666205787129667    0.0000389627262731    0.6098005629679398    F  F  F    Mo001
    0.1666251111774378    0.5000422273480069    0.6097946078110777    F  F  F    Mo002
    0.6666221626530719    0.0000439160310342    0.6097982381589565    F  F  F    Mo003
    0.6666216563404163    0.5000442756739879    0.6097940851843233    F  F  F    Mo004
    0.3333711433544510    0.3334116066940067    0.6097944418471383    F  F  F    Mo005
    0.3333656453189278    0.8334087042670024    0.6097990251409983    F  F  F    Mo006
    0.8333687579981582    0.3334067691045509    0.6097993361644100    F  F  F    Mo007
    0.8333627647150045    0.8334047785322798    0.6097955929293449    F  F  F    Mo008
    0.9999841042518027    0.1666634635856952    0.6097992147301710    F  F  F    Mo009
    0.9999929046118471    0.6666673402991651    0.6098004480967024    F  F  F    Mo010
    0.4999898443584069    0.1666670965062591    0.6097961994054867    F  F  F    Mo011
    0.4999882020500500    0.6666625553047505    0.6097923826356495    F  F  F    Mo012
    0.1670272233935165    0.1671139026998898    0.5738611576498294    F  F  F     N001
    0.1670427030508371    0.6671526840868368    0.5738552212367218    F  F  F     N002
    0.6670559322447532    0.1671387870122141    0.5738548149946532    F  F  F     N003
    0.6670559203261115    0.6671461367565710    0.5738464316228813    F  F  F     N004
    0.1667017859871410    0.1667497444587118    0.6457436029881120    F  F  F     N005
    0.1667014407847425    0.6667427900287027    0.6457435139427772    F  F  F     N006
    0.6666965177344061    0.1667435937747796    0.6457434284097441    F  F  F     N007
    0.6666947200910653    0.6667444416142754    0.6457409622516882    F  F  F     N008
    0.1666602380913438    0.0000076139162485    0.7105770779280763    F  F  F     N009
    0.1666601509493267    0.5000093789788710    0.7105771393151725    F  F  F     N010
    0.6666605753348277    0.0000073461325449    0.7105769935033696    F  F  F     N011
    0.6666609224402424    0.5000085381560725    0.7105767778707164    F  F  F     N012
    0.1657628969748337    0.0001524149003319    0.5092709216754590    F  F  F     N013
    0.1657107749767132    0.5001562481834578    0.5092884104566414    F  F  F     N014
    0.6657650563927886    0.0001309416886450    0.5092785207524068    F  F  F     N015
    0.6657903649521693    0.5001488955680775    0.5092928036876527    F  F  F     N016
    0.3328803317136461    0.9999827941529058    0.5738563051625344    F  F  F     N017
    0.3328860651208860    0.4999907056431745    0.5738478918872997    F  F  F     N018
    0.8328986332898570    0.0000061130045375    0.5738564031058122    F  F  F     N019
    0.8329184030111890    0.5000010536702106    0.5738599952615259    F  F  F     N020
    0.3332853990801616    0.0000331116543791    0.6457438226577600    F  F  F     N021
    0.3332867017542746    0.5000356438675995    0.6457406490471997    F  F  F     N022
    0.8332813859773209    0.0000282820758797    0.6457433509095153    F  F  F     N023
    0.8332800992503915    0.5000304854065570    0.6457436986446055    F  F  F     N024
    0.3333325570871093    0.3333457126238979    0.7105755835886375    F  F  F     N025
    0.3333335896156112    0.8333462485816893    0.7105764511068666    F  F  F     N026
    0.8333319737317822    0.3333435724822942    0.7105768538299109    F  F  F     N027
    0.8333329444590208    0.8333424444998249    0.7105768561014861    F  F  F     N028
    0.3343147172886111    0.3342257868637291    0.5092960919642865    F  F  F     N029
    0.3343254762408995    0.8342590500389151    0.5092690836525886    F  F  F     N030
    0.8343119103270061    0.3342761125753033    0.5092728818779626    F  F  F     N031
    0.8343869720851343    0.8343215547801919    0.5092857851421190    F  F  F     N032
    0.0000196546051787    0.3329774816159018    0.5738539777405487    F  F  F     N033
    0.0000499445160702    0.8329884800793761    0.5738562574588173    F  F  F     N034
    0.5000418462561973    0.3329751908205090    0.5738494674139253    F  F  F     N035
    0.5000299182054562    0.8330027034853403    0.5738560092577073    F  F  F     N036
    0.0000016123943519    0.3333335029037702    0.6457432006235969    F  F  F     N037
    0.9999947812429946    0.8333319821322253    0.6457442158895312    F  F  F     N038
    0.4999985206962335    0.3333340126434931    0.6457414719572464    F  F  F     N039
    0.4999980325468183    0.8333268498457080    0.6457426055088802    F  F  F     N040
    0.9999964892508205    0.1666724306971654    0.7105764886235689    F  F  F     N041
    0.9999974349871666    0.6666716209073155    0.7105758557012913    F  F  F     N042
    0.4999970127745976    0.1666742783616437    0.7105762890566949    F  F  F     N043
    0.4999964783345660    0.6666708019865284    0.7105770961874419    F  F  F     N044
    0.4998756189852047    0.1656288157237024    0.5092843317931746    F  F  F     N045
    0.4998691120116843    0.6657117330470587    0.5092931655531167    F  F  F     N046
    0.9998995544018447    0.1657138858175246    0.5092780549285467    F  F  F     N047
    0.9998637735172159    0.6656964616444835    0.5092710399793049    F  F  F     N048
    0.1666666378177788    0.1666685906879283    0.6960278530156532    F  F  F    Si001
    0.1666665976856869    0.6666697148129597    0.6960275825370689    F  F  F    Si002
    0.6666666622187953    0.1666669167777347    0.6960278581235901    F  F  F    Si003
    0.6666666945348847    0.6666678206096951    0.6960278794613683    F  F  F    Si004
    0.1672915544521209    0.1673595258622874    0.5236213399184833    F  F  F    Si005
    0.1672738039373174    0.6673568397219202    0.5236103436644740    F  F  F    Si006
    0.6672964528541135    0.1673425603670127    0.5236083036642065    F  F  F    Si007
    0.6673039877803448    0.6673789727415536    0.5235889311387111    F  F  F    Si008
    0.3333325015704849    0.0000008461057897    0.6960277186006606    F  F  F    Si009
    0.3333331504531035    0.5000006568379418    0.6960278691846893    F  F  F    Si010
    0.8333325531404780    0.0000007439801254    0.6960278746008620    F  F  F    Si011
    0.8333331086559076    0.5000007825683849    0.6960278518728500    F  F  F    Si012
    0.3326644685199231    0.9999963534622308    0.5236136764708146    F  F  F    Si013
    0.3326515894173869    0.4999997848645806    0.5235919176475480    F  F  F    Si014
    0.8326824766583667    0.0000224215220192    0.5236117236053472    F  F  F    Si015
    0.8326675504404070    0.5000104089442776    0.5236201535160575    F  F  F    Si016
    0.0000000540934479    0.3333338691030580    0.6960278006094878    F  F  F    Si017
    0.0000000251710919    0.8333337734246508    0.6960277431326666    F  F  F    Si018
    0.4999995687495100    0.3333346116542335    0.6960280034770098    F  F  F    Si019
    0.4999999468663065    0.8333335159199944    0.6960279269031755    F  F  F    Si020
    0.0000002000050508    0.3327513420857922    0.5236064188426979    F  F  F    Si021
    0.0000156788980307    0.8327475226284036    0.5236121707055864    F  F  F    Si022
    0.5000271361185163    0.3327104363020638    0.5235950127006260    F  F  F    Si023
    0.5000122731533748    0.8327335096680694    0.5236113474647714    F  F  F    Si024
    0.9999710423385672    0.0002432672042751    0.3497271289403203    F  F  F    Ni001
    0.9998259166766860    0.4999602502916616    0.3497350975540310    F  F  F    Ni002
    0.4999763320218961    0.9998763039268517    0.3497334086701014    F  F  F    Ni003
    0.4998997373194477    0.5001173015672000    0.3448225951968250    F  F  F    Ni004
    0.0001862368616669    0.0000091745494200    0.4413722841481545    F  F  F    Ni005
    0.9998622319332443    0.5002831368448420    0.4413494416276542    F  F  F    Ni006
    0.4995484351652493    0.9998205188283783    0.4413428809953594    F  F  F    Ni007
    0.4999776714299112    0.5000038063372750    0.4415129751423538    F  F  F    Ni008
    0.3339435049853234    0.1671339796962839    0.3953674049008117    F  F  F    Ni009
    0.3329946459567961    0.6660249398102713    0.3954614508247873    F  F  F    Ni010
    0.8332670550794923    0.1667379657859993    0.3949791784970176    F  F  F    Ni011
    0.8327018866352239    0.6669270784660349    0.3953599496089775    F  F  F    Ni012
    0.3229759591134732    0.3291296388314778    0.3634937145221226    F  F  F     O001
    0.3185452017694764    0.8240355119091175    0.3625332368057236    F  F  F     O002
    0.8173992184112501    0.3252374256181766    0.3624718095228545    F  F  F     O003
    0.8188360775639690    0.8249430776891248    0.3628259802160727    F  F  F     O004
    0.1751261111343301    0.4942492509895671    0.3628857309475566    F  F  F     O005
    0.1758133853876395    0.9946049439396361    0.3624851815634936    F  F  F     O006
    0.6708223721048749    0.4940090419733512    0.3634362364344554    F  F  F     O007
    0.6746858631202569    0.9923101496693818    0.3625404006607149    F  F  F     O008
    0.0076791660977822    0.1826098671043643    0.3625284388132113    F  F  F     O009
    0.0052672320097399    0.6813637074709680    0.3624858782757533    F  F  F     O010
    0.5057453864584371    0.1810075076281729    0.3627845199643482    F  F  F     O011
    0.5059046684193860    0.6770093311015941    0.3635308631960281    F  F  F     O012
    0.0054807344171031    0.3245403622216902    0.4275463074403280    F  F  F     O013
    0.0062844376748796    0.8247478476836433    0.4274155587524300    F  F  F     O014
    0.5061452128003242    0.3239428525585919    0.4281348597520340    F  F  F     O015
    0.5061766300658121    0.8245731417955585    0.4275816404093760    F  F  F     O016
    0.1754477619123255    0.1817382564662333    0.4275430716997768    F  F  F     O017
    0.1750479581596020    0.6818240275615770    0.4274657668297172    F  F  F     O018
    0.6753109242265949    0.1810648561046015    0.4274947005515928    F  F  F     O019
    0.6760271509871444    0.6823601147457676    0.4281924513172666    F  F  F     O020
    0.3176230011093331    0.4937838256274661    0.4282297902491361    F  F  F     O021
    0.3180409896089392    0.9935246378725306    0.4274329410550087    F  F  F     O022
    0.8181382575602992    0.4937910478278150    0.4274863826571777    F  F  F     O023
    0.8189032623079289    0.9945246484644069    0.4275472329367228    F  F  F     O024
    0.1669966401368978    0.3342403792096436    0.3953365073459832    F  F  F    Te001
    0.1664763500988493    0.8333422251601664    0.3947589716040882    F  F  F    Te002
    0.6656990528261691    0.3328588707065089    0.3952591722271377    F  F  F    Te003
    0.6670800952993754    0.8330402790645356    0.3953355778197847    F  F  F    Te004
    0.4996197955952140    0.5002814413810589    0.2986674744936378    T  T  T     H001
