cif2pos.py                              
   1.00000000000000     
    10.1501999999999999    0.0000000000000000    0.0000000000000000
    -5.0750846599999999    8.7903399100000001    0.0000000000000000
     0.0000000000000000   -0.0000704100000000   34.9384000000000015
   Mo   Si   N    Ni   Te   O    H 
    12    24    47    12     4    24     1
Direct
  0.1682683420328743  0.0016902425428071  0.6093597417132486
  0.1679882729524422  0.5022276090627003  0.6085194516927146
  0.6685391461137158  0.0025412609035413  0.6095231505597454
  0.6676875460784544  0.5026975301488790  0.6092121243541087
  0.3345335969358345  0.3356189182436111  0.6085552425871583
  0.3350440837746476  0.8352924056553022  0.6092898833832905
  0.8341045768529440  0.3359849468187619  0.6093064826469217
  0.8348915162064756  0.8361507810089819  0.6094807770821689
  0.0008675366436677  0.1683889136187062  0.6093308214469033
  0.0012267860512054  0.6686846404159610  0.6092063070357767
  0.5011975223742198  0.1687811936908830  0.6092748457085833
  0.5014537213827950  0.6689445570435169  0.6089690533735421
  0.1677030199652734  0.1681698536923975  0.6953229537881924
  0.1675920455895081  0.6678999230569787  0.6953151954125758
  0.6675172756422683  0.1680679113633659  0.6956020749650520
  0.6673125819410330  0.6678612541810338  0.6955257862494690
  0.1667398114866998  0.1630416311844556  0.5232776702986470
  0.1717190238321322  0.6701271751579512  0.5227492189736012
  0.6690240756767238  0.1744856510527484  0.5233145966427628
  0.6720728976872437  0.6923446389595398  0.5235906592955857
  0.3342077629092017  0.0013123021457631  0.6955357247667919
  0.3341484502295131  0.5013357579887838  0.6949837483184851
  0.8342043464331184  0.0013748881202247  0.6957000863418514
  0.8342356238094339  0.5013363998677960  0.6954856342357658
  0.3394883250931642  0.0003671311932365  0.5230255404203277
  0.3141821729678895  0.4838508089435010  0.5205584304573776
  0.8378591001510358  0.0067568641015043  0.5230435493601391
  0.8309951375978812  0.5081555779912961  0.5227918283933448
  0.0010847771789599  0.3347492454192746  0.6952919636971444
  0.0008370758319174  0.8346214110392012  0.6955881685923586
  0.5007627443745335  0.3347028754751875  0.6953184503115608
  0.5007366814800847  0.8344636412827526  0.6955426869065704
  0.9935339675166119  0.3328176939621628  0.5233252038204839
  0.0061367199593079  0.8359974119615714  0.5233818582331651
  0.5005963381869591  0.3381282575133184  0.5229568683522103
  0.5232758115417155  0.8382226322772368  0.5240136374527182
  0.1664558012164576  0.1664679654791996  0.5734088463957008
  0.1689229471532485  0.6700097795552367  0.5730928280836665
  0.6682114832381387  0.1697895346942815  0.5735998721010134
  0.6688739478452135  0.6711173997014797  0.5736225365157139
  0.1684612176137534  0.1691610962851726  0.6450253105379957
  0.1679796688102684  0.6678487765093024  0.6449909652608312
  0.6679229370946089  0.1692040645498167  0.6453447273622288
  0.6672826025216096  0.6688097629255907  0.6452596902451049
  0.1675652217932182  0.0015873425786310  0.7100366718161979
  0.1678527374629937  0.5013828857991172  0.7097494830047992
  0.6673464355583576  0.0012831745763222  0.7101678821897863
  0.6674558234408465  0.5012066206180847  0.7099962079267925
  0.1715449461160645  0.9995377730492052  0.5089296606362552
  0.1536956401548721  0.4964149627605963  0.5080776252806700
  0.6752486922701664  0.0138228454938698  0.5086382372720024
  0.6622638723810539  0.5129818392807408  0.5089952819186934
  0.3352805998495327  0.0010851926211046  0.5733275849316470
  0.3355706422845230  0.5039099001610197  0.5708731388115424
  0.8341295405317410  0.0021499877488793  0.5734023652037692
  0.8329171965231907  0.5033531238346640  0.5731589752591049
  0.3348031182091518  0.0018552284635689  0.6452674284830877
  0.3340236129929153  0.5016305591616259  0.6445018427930549
  0.8347149883745502  0.0022751479166487  0.6454488921628041
  0.8342560605929279  0.5023572512861918  0.6452038497450232
  0.3342800275681554  0.3350508908056185  0.7097510217922363
  0.3340395124552842  0.8345572434812993  0.7100226032766841
  0.8345393267258814  0.3347988899668124  0.7100082625825692
  0.8340542828933692  0.8345248101888600  0.7101529176156163
  0.3295089254876729  0.3251788835334679  0.5083728749486767
  0.3465125350645906  0.8336369439469635  0.5090810254122005
  0.8319179446123641  0.3410741908326003  0.5087712485913372
  0.8478564767911081  0.8461468757927832  0.5083645339408633
  0.9984332737419521  0.3333645565800580  0.5733779549441635
  0.0016588396503181  0.8351361991325490  0.5736093665841366
  0.5018253316493499  0.3355568881014577  0.5732120844821225
  0.5028672614892500  0.8356026460850572  0.5738678310840655
  0.0016212112460465  0.3359107041104323  0.6449813839737928
  0.0014757942708243  0.8351890507053241  0.6453357931243104
  0.5003927675379316  0.3354947602516987  0.6450004964156761
  0.5012946944465071  0.8346975800173198  0.6452932490107699
  0.0011556683456462  0.1682667449095092  0.7099654825454635
  0.0010832816371718  0.6679792216828986  0.7100112934354925
  0.5008178624302744  0.1682340016347510  0.7100468787333938
  0.5004020889048633  0.6675313320612872  0.7099137425107003
  0.5022479836026577  0.1704829682730420  0.5089245701583422
  0.0032976840039396  0.1704321101864892  0.5089972642636411
  0.0031857409873410  0.6695019570034901  0.5088618896474486
  0.9982421306615308  0.9953100426172483  0.3518135659659265
  0.9996151967574605  0.4974569014709758  0.3514888654125059
  0.4982018330335123  0.9969815403596982  0.3512881752676620
  0.4988953076666220  0.4972951070337004  0.3513419223359406
  0.9991112753424289  0.9967285959004855  0.4434270622387047
  0.9992094092600183  0.4961304888842974  0.4435941152059115
  0.4987474427615197  0.9967701825759718  0.4438780148434418
  0.4987793078246838  0.4939810023144346  0.4424867723483246
  0.3326137430027316  0.1632849812208192  0.3960931693493777
  0.3323351899413183  0.6631787704844285  0.3970568195520414
  0.8321562267017129  0.1635456827579702  0.3962072179048448
  0.8321625129710952  0.6635595242420536  0.3971401787426601
  0.1649166571329630  0.3292486382420563  0.3958736489317545
  0.1657665228734828  0.8301108088876461  0.3965184345586721
  0.6662539901100928  0.3300826376738613  0.3962462498657757
  0.6653644138249462  0.8304330913874622  0.3972766533904348
  0.3173731732187619  0.3211196201658595  0.3635065752826989
  0.3180243048299189  0.8208067791695868  0.3643481344646275
  0.8174693634424912  0.3216793892491552  0.3635229854952442
  0.8163853049802299  0.8207540044269166  0.3647371541628459
  0.1752599930786829  0.4912270779151342  0.3637157895818959
  0.1747103734653592  0.9900208665980514  0.3636853207347315
  0.6744526526372283  0.4919558832300623  0.3643864350092798
  0.6723422266418879  0.9893172235292553  0.3645573145240419
  0.0045812897481383  0.1778486381709428  0.3633415115099226
  0.0048125980659250  0.6784470764786974  0.3640919975724799
  0.5057078921543621  0.1793501203665784  0.3635239199040683
  0.5052370277996232  0.6782863941749540  0.3649108094317342
  0.0049295022312350  0.3213730824007044  0.4282631970082420
  0.0054555194769677  0.8218407498274019  0.4288844274138199
  0.5049369434494935  0.3196822363187479  0.4287146677773066
  0.5051503465625586  0.8197209927910691  0.4305862963780243
  0.1734879823008839  0.1771372345833626  0.4281483089172227
  0.1740667882341356  0.6780845446404129  0.4290362959184364
  0.6736586074570852  0.1772997684940094  0.4284577708240036
  0.6734024311065951  0.6788173544525122  0.4303814121260245
  0.3175800298059812  0.4888712021735984  0.4285003681730473
  0.3181079447345923  0.9910747988581363  0.4286936100704679
  0.8177699583593565  0.4902457808594107  0.4288726043377125
  0.8181758591124009  0.9920045029284310  0.4290256849215766
  0.4247240631865807  0.5982810807248526  0.4939234526650083
 
  0.00000000E+00  0.00000000E+00  0.00000000E+00
  0.00000000E+00  0.00000000E+00  0.00000000E+00
  0.00000000E+00  0.00000000E+00  0.00000000E+00
  0.00000000E+00  0.00000000E+00  0.00000000E+00
  0.00000000E+00  0.00000000E+00  0.00000000E+00
  0.00000000E+00  0.00000000E+00  0.00000000E+00
  0.00000000E+00  0.00000000E+00  0.00000000E+00
  0.00000000E+00  0.00000000E+00  0.00000000E+00
  0.00000000E+00  0.00000000E+00  0.00000000E+00
  0.00000000E+00  0.00000000E+00  0.00000000E+00
  0.00000000E+00  0.00000000E+00  0.00000000E+00
  0.00000000E+00  0.00000000E+00  0.00000000E+00
  0.00000000E+00  0.00000000E+00  0.00000000E+00
  0.00000000E+00  0.00000000E+00  0.00000000E+00
  0.00000000E+00  0.00000000E+00  0.00000000E+00
  0.00000000E+00  0.00000000E+00  0.00000000E+00
  0.00000000E+00  0.00000000E+00  0.00000000E+00
  0.00000000E+00  0.00000000E+00  0.00000000E+00
  0.00000000E+00  0.00000000E+00  0.00000000E+00
  0.00000000E+00  0.00000000E+00  0.00000000E+00
  0.00000000E+00  0.00000000E+00  0.00000000E+00
  0.00000000E+00  0.00000000E+00  0.00000000E+00
  0.00000000E+00  0.00000000E+00  0.00000000E+00
  0.00000000E+00  0.00000000E+00  0.00000000E+00
  0.00000000E+00  0.00000000E+00  0.00000000E+00
  0.00000000E+00  0.00000000E+00  0.00000000E+00
  0.00000000E+00  0.00000000E+00  0.00000000E+00
  0.00000000E+00  0.00000000E+00  0.00000000E+00
  0.00000000E+00  0.00000000E+00  0.00000000E+00
  0.00000000E+00  0.00000000E+00  0.00000000E+00
  0.00000000E+00  0.00000000E+00  0.00000000E+00
  0.00000000E+00  0.00000000E+00  0.00000000E+00
  0.00000000E+00  0.00000000E+00  0.00000000E+00
  0.00000000E+00  0.00000000E+00  0.00000000E+00
  0.00000000E+00  0.00000000E+00  0.00000000E+00
  0.00000000E+00  0.00000000E+00  0.00000000E+00
  0.00000000E+00  0.00000000E+00  0.00000000E+00
  0.00000000E+00  0.00000000E+00  0.00000000E+00
  0.00000000E+00  0.00000000E+00  0.00000000E+00
  0.00000000E+00  0.00000000E+00  0.00000000E+00
  0.00000000E+00  0.00000000E+00  0.00000000E+00
  0.00000000E+00  0.00000000E+00  0.00000000E+00
  0.00000000E+00  0.00000000E+00  0.00000000E+00
  0.00000000E+00  0.00000000E+00  0.00000000E+00
  0.00000000E+00  0.00000000E+00  0.00000000E+00
  0.00000000E+00  0.00000000E+00  0.00000000E+00
  0.00000000E+00  0.00000000E+00  0.00000000E+00
  0.00000000E+00  0.00000000E+00  0.00000000E+00
  0.00000000E+00  0.00000000E+00  0.00000000E+00
  0.00000000E+00  0.00000000E+00  0.00000000E+00
  0.00000000E+00  0.00000000E+00  0.00000000E+00
  0.00000000E+00  0.00000000E+00  0.00000000E+00
  0.00000000E+00  0.00000000E+00  0.00000000E+00
  0.00000000E+00  0.00000000E+00  0.00000000E+00
  0.00000000E+00  0.00000000E+00  0.00000000E+00
  0.00000000E+00  0.00000000E+00  0.00000000E+00
  0.00000000E+00  0.00000000E+00  0.00000000E+00
  0.00000000E+00  0.00000000E+00  0.00000000E+00
  0.00000000E+00  0.00000000E+00  0.00000000E+00
  0.00000000E+00  0.00000000E+00  0.00000000E+00
  0.00000000E+00  0.00000000E+00  0.00000000E+00
  0.00000000E+00  0.00000000E+00  0.00000000E+00
  0.00000000E+00  0.00000000E+00  0.00000000E+00
  0.00000000E+00  0.00000000E+00  0.00000000E+00
  0.00000000E+00  0.00000000E+00  0.00000000E+00
  0.00000000E+00  0.00000000E+00  0.00000000E+00
  0.00000000E+00  0.00000000E+00  0.00000000E+00
  0.00000000E+00  0.00000000E+00  0.00000000E+00
  0.00000000E+00  0.00000000E+00  0.00000000E+00
  0.00000000E+00  0.00000000E+00  0.00000000E+00
  0.00000000E+00  0.00000000E+00  0.00000000E+00
  0.00000000E+00  0.00000000E+00  0.00000000E+00
  0.00000000E+00  0.00000000E+00  0.00000000E+00
  0.00000000E+00  0.00000000E+00  0.00000000E+00
  0.00000000E+00  0.00000000E+00  0.00000000E+00
  0.00000000E+00  0.00000000E+00  0.00000000E+00
  0.00000000E+00  0.00000000E+00  0.00000000E+00
  0.00000000E+00  0.00000000E+00  0.00000000E+00
  0.00000000E+00  0.00000000E+00  0.00000000E+00
  0.00000000E+00  0.00000000E+00  0.00000000E+00
  0.00000000E+00  0.00000000E+00  0.00000000E+00
  0.00000000E+00  0.00000000E+00  0.00000000E+00
  0.00000000E+00  0.00000000E+00  0.00000000E+00
  0.00000000E+00  0.00000000E+00  0.00000000E+00
  0.00000000E+00  0.00000000E+00  0.00000000E+00
  0.00000000E+00  0.00000000E+00  0.00000000E+00
  0.00000000E+00  0.00000000E+00  0.00000000E+00
  0.00000000E+00  0.00000000E+00  0.00000000E+00
  0.00000000E+00  0.00000000E+00  0.00000000E+00
  0.00000000E+00  0.00000000E+00  0.00000000E+00
  0.00000000E+00  0.00000000E+00  0.00000000E+00
  0.00000000E+00  0.00000000E+00  0.00000000E+00
  0.00000000E+00  0.00000000E+00  0.00000000E+00
  0.00000000E+00  0.00000000E+00  0.00000000E+00
  0.00000000E+00  0.00000000E+00  0.00000000E+00
  0.00000000E+00  0.00000000E+00  0.00000000E+00
  0.00000000E+00  0.00000000E+00  0.00000000E+00
  0.00000000E+00  0.00000000E+00  0.00000000E+00
  0.00000000E+00  0.00000000E+00  0.00000000E+00
  0.00000000E+00  0.00000000E+00  0.00000000E+00
  0.00000000E+00  0.00000000E+00  0.00000000E+00
  0.00000000E+00  0.00000000E+00  0.00000000E+00
  0.00000000E+00  0.00000000E+00  0.00000000E+00
  0.00000000E+00  0.00000000E+00  0.00000000E+00
  0.00000000E+00  0.00000000E+00  0.00000000E+00
  0.00000000E+00  0.00000000E+00  0.00000000E+00
  0.00000000E+00  0.00000000E+00  0.00000000E+00
  0.00000000E+00  0.00000000E+00  0.00000000E+00
  0.00000000E+00  0.00000000E+00  0.00000000E+00
  0.00000000E+00  0.00000000E+00  0.00000000E+00
  0.00000000E+00  0.00000000E+00  0.00000000E+00
  0.00000000E+00  0.00000000E+00  0.00000000E+00
  0.00000000E+00  0.00000000E+00  0.00000000E+00
  0.00000000E+00  0.00000000E+00  0.00000000E+00
  0.00000000E+00  0.00000000E+00  0.00000000E+00
  0.00000000E+00  0.00000000E+00  0.00000000E+00
  0.00000000E+00  0.00000000E+00  0.00000000E+00
  0.00000000E+00  0.00000000E+00  0.00000000E+00
  0.00000000E+00  0.00000000E+00  0.00000000E+00
  0.00000000E+00  0.00000000E+00  0.00000000E+00
  0.00000000E+00  0.00000000E+00  0.00000000E+00
  0.00000000E+00  0.00000000E+00  0.00000000E+00
  0.00000000E+00  0.00000000E+00  0.00000000E+00
  0.00000000E+00  0.00000000E+00  0.00000000E+00
