generated with latticeMatcher           
   1.00000000000000     
     5.0650615792119948    0.0000051071160734    0.0000047939114164
    -2.5325266010330858    4.3864729820138146   -0.0000049851236646
     0.0000329018098311   -0.0000205810183236   34.8547287323303507
   Mo   N    Si   Ni   O    Te
     3    12     6     3     6     1
Direct
  0.3332987437175320  0.0000035291530899  0.6143464971997393
  0.6667034248916579  0.6667019342290779  0.6143465026381203
 -0.0000034575975170  0.3332969246000955  0.6143465097659678
  0.3337459338029158  0.3337772300129892  0.5784595644876851
  0.3333725948095400  0.3333775725922219  0.6502306701403674
  0.3333271903876334  0.0000027160268891  0.7154291740057480
  0.3323606864467991  0.0000722691748189  0.5133348712936274
  0.6662233652011220 -0.0000296573877356  0.5784596042516708
  0.6666222010258956 -0.0000026683522352  0.6502306422156406
  0.6666703697573637  0.6666734461034052  0.7154291654489096
  0.6677093592141767  0.6676383141109424  0.5133348750247340
  0.0000301835992576  0.6662544725560207  0.5784595913377089
  0.0000023861580421  0.6666270310814187  0.6502306551273195
 -0.0000018731061552  0.3333303758415636  0.7154291332614974
  0.9999269789939943  0.3322898231717692  0.5133349124939862
  0.3333369891369675  0.3333411690110132  0.7007181862341572
  0.3340371190033790  0.3340689286931929  0.5279737749255099
  0.6666598394570211  0.0000019396677678  0.7007181569969769
  0.6659306581622112 -0.0000299265368330  0.5279737945091696
 -0.0000009379971122  0.6666640722715030  0.7007181710527686
  0.0000295461592783  0.6659624610918045  0.5279738037689995
  0.0000043671912760 -0.0000020138472640  0.3403501034025545
 -0.0000012698848167 -0.0000039845026341  0.4313342076669630
  0.6666684387877477  0.3333306346379342  0.3855014679228068
  0.6365283656465633  0.6484998610931909  0.3528426997906245
  0.3515017721584737  0.9880232736297440  0.3528428278571186
  0.0119780624288895  0.3634708451194703  0.3528426888161988
  0.0120460911429887  0.6487551505682354  0.4181554384880225
  0.3512416349035127  0.3632834042639644  0.4181555184849002
  0.6367170165053786  0.9879573781556990  0.4181548790877886
  0.3333349388612802  0.6666642466575349  0.3854839493027202
 
  0.00000000E+00  0.00000000E+00  0.00000000E+00
  0.00000000E+00  0.00000000E+00  0.00000000E+00
  0.00000000E+00  0.00000000E+00  0.00000000E+00
  0.00000000E+00  0.00000000E+00  0.00000000E+00
  0.00000000E+00  0.00000000E+00  0.00000000E+00
  0.00000000E+00  0.00000000E+00  0.00000000E+00
  0.00000000E+00  0.00000000E+00  0.00000000E+00
  0.00000000E+00  0.00000000E+00  0.00000000E+00
  0.00000000E+00  0.00000000E+00  0.00000000E+00
  0.00000000E+00  0.00000000E+00  0.00000000E+00
  0.00000000E+00  0.00000000E+00  0.00000000E+00
  0.00000000E+00  0.00000000E+00  0.00000000E+00
  0.00000000E+00  0.00000000E+00  0.00000000E+00
  0.00000000E+00  0.00000000E+00  0.00000000E+00
  0.00000000E+00  0.00000000E+00  0.00000000E+00
  0.00000000E+00  0.00000000E+00  0.00000000E+00
  0.00000000E+00  0.00000000E+00  0.00000000E+00
  0.00000000E+00  0.00000000E+00  0.00000000E+00
  0.00000000E+00  0.00000000E+00  0.00000000E+00
  0.00000000E+00  0.00000000E+00  0.00000000E+00
  0.00000000E+00  0.00000000E+00  0.00000000E+00
  0.00000000E+00  0.00000000E+00  0.00000000E+00
  0.00000000E+00  0.00000000E+00  0.00000000E+00
  0.00000000E+00  0.00000000E+00  0.00000000E+00
  0.00000000E+00  0.00000000E+00  0.00000000E+00
  0.00000000E+00  0.00000000E+00  0.00000000E+00
  0.00000000E+00  0.00000000E+00  0.00000000E+00
  0.00000000E+00  0.00000000E+00  0.00000000E+00
  0.00000000E+00  0.00000000E+00  0.00000000E+00
  0.00000000E+00  0.00000000E+00  0.00000000E+00
  0.00000000E+00  0.00000000E+00  0.00000000E+00
