cif2pos.py                              
   1.00000000000000     
    10.1501999999999999    0.0000000000000000    0.0000000000000000
    -5.0750846599999999    8.7903399100000001    0.0000000000000000
     0.0000000000000000   -0.0000704100000000   34.9384000000000015
   Mo   Si   N    Ni   Te   O    H 
    12    24    48    12     4    23     1
Direct
  0.1670683701735882  0.9999624828268523  0.6096538083761942
  0.1671220149767905  0.4999866336235712  0.6097466415293979
  0.6671339841012482  0.0000746046248423  0.6096573515780506
  0.6670571482954273  0.5000143355986140  0.6096301031052178
  0.3338864777872672  0.3332749937445456  0.6096950967781112
  0.3338682127699499  0.8333482524842779  0.6097033820251312
  0.8339385353469524  0.3333940623974030  0.6096871588198454
  0.8337625198200129  0.8333261269267211  0.6096198595214091
  0.0005139011595361  0.1666527273573095  0.6096460001364861
  0.0005297105800963  0.6666299558120130  0.6097108662666173
  0.5004530556583831  0.1666763765552730  0.6096257189112038
  0.5006033347916699  0.6666995851508659  0.6097194654159210
  0.1670340684075526  0.1666606303794040  0.6959107759107397
  0.1670182400008500  0.6666794510614693  0.6959650085739852
  0.6670239089298775  0.1666730389945741  0.6959006670005365
  0.6669969578034980  0.6666796446639083  0.6959065723913085
  0.1675477444429347  0.1673119288170000  0.5234435575176093
  0.1679344225884307  0.6673944503234637  0.5235653206429021
  0.6676026011976646  0.1673597271243707  0.5234177373690443
  0.6678026473286849  0.6668805973682481  0.5232393968781537
  0.3337063317385898  0.0000175125444883  0.6959064525701493
  0.3336741147370432  0.4999862870580856  0.6959580060606285
  0.8336694863105123  0.9999977806160416  0.6958965025454447
  0.8336725969649450  0.4999964777189376  0.6959174834259159
  0.3330444001356980  0.0001426472727957  0.5235006745584130
  0.3334824666376832  0.5001169740816351  0.5238412304668429
  0.8328881272829491  0.9997938425074722  0.5234138906342949
  0.8333517673588844  0.4999357828652151  0.5235978544459456
  0.0003233704280490  0.3333087197729725  0.6959365543153098
  0.0003121002792597  0.8333206819144436  0.6959010355150994
  0.5003181703061088  0.3333219838426871  0.6959004861626497
  0.5003862731087168  0.8333422290190953  0.6959319139135403
  0.0005340379099650  0.3326893721990487  0.5234488649930071
  0.0004297027335483  0.8326742914540830  0.5234473726036413
  0.5008427219146370  0.3331314792403859  0.5232288517360928
  0.5003741103187664  0.8327419163201881  0.5235524610854796
  0.1676719508356896  0.1672488053483576  0.5736892958723061
  0.1676202545937286  0.6669334793756576  0.5737671922580034
  0.6675426338608759  0.1671340322294768  0.5736959738574896
  0.6673027815683099  0.6671632544921167  0.5736360579154578
  0.1671430357199952  0.1666392297932191  0.6456178575513363
  0.1672043243658692  0.6667262040681621  0.6456774570555908
  0.6671533314706721  0.1667408609977272  0.6456102875546179
  0.6672063768763579  0.6667341022453428  0.6456129348210240
  0.1670006469502923  0.9999718726155891  0.7104537697280904
  0.1669848771029621  0.4999706687702172  0.7105158711121717
  0.6670528589389377  0.0000389144796529  0.7104645364670432
  0.6669852767829312  0.4999858980454661  0.7104573493756163
  0.1662018385713466  0.0002156474277442  0.5091628373576924
  0.1670435468225193  0.5002987435112658  0.5090150273713121
  0.6658813931596228  0.9998946097610499  0.5091313694953001
  0.6671640502871270  0.5000540599961809  0.5095604372331337
  0.3333196036047070  0.9998069324378420  0.5737333508654956
  0.3334769569665212  0.4999857415581133  0.5738900395483242
  0.8333275757116283  0.0000010472477925  0.5736821044648295
  0.8338238982506425  0.5000411967635756  0.5738402913325942
  0.3337554922618793  0.0000206572175045  0.6456154980752160
  0.3338214068527989  0.4999648467636888  0.6456814837490370
  0.8337635512636368  0.0000129973014467  0.6455960986053526
  0.8337321745419857  0.4999916664693913  0.6456337448715885
  0.3336799916257362  0.3332773682285008  0.7104805617540819
  0.3337115200400618  0.8333781116360086  0.7104890653306484
  0.8336752728536538  0.3333344176771433  0.7104727265670689
  0.8336794650360915  0.8333457917172495  0.7104505210193608
  0.3346428565846296  0.3347780298603595  0.5089255551708334
  0.3347624837712644  0.8342956941997812  0.5091325368332988
  0.8349785472825175  0.3342324311895055  0.5092410128737868
  0.8348200107965340  0.8342058367232852  0.5091367120284858
  0.0008369381959596  0.3332186555397882  0.5737121921467860
  0.0004995174900841  0.8328350568934013  0.5737012919292610
  0.5001976564387860  0.3328697440005683  0.5736224842111071
  0.5004398869339255  0.8328279443198880  0.5737515481052284
  0.0004743579166160  0.3332263746054238  0.6456492919162429
  0.0004131020847495  0.8333090529798000  0.6456073489192988
  0.5004674204803123  0.3332655810525793  0.6456049631269565
  0.5005600629739675  0.8333888009353245  0.6456437436668878
  0.0003475251436171  0.1666276216510880  0.7104662455395072
  0.0003271601540291  0.6666798962328926  0.7104807159509008
  0.5003548996431348  0.1666568085561551  0.7104542722345357
  0.5003731055119829  0.6666820332632923  0.7104886690438832
  0.5001388299643637  0.1655882689861485  0.5091539843514425
  0.4999263161217300  0.6654536826806421  0.5090196161838918
  0.0002016392471518  0.1656120490744257  0.5091509635867340
  0.0007091154195535  0.6656252166902590  0.5091637377049025
  0.9982135926342650  0.0015222909178405  0.3505458043414222
  0.9952607246373475  0.4982318682731304  0.3500506175656426
  0.5028660119925803  0.0016687009113809  0.3504728766138143
  0.5006434675645792  0.4989568446931756  0.3499752726944081
  0.9999753216608482  0.0001309292858096  0.4414165269785855
  0.9984640578767738  0.5023034855774711  0.4414810241791400
  0.4978927678750011  0.9977146003385684  0.4417137282795807
  0.4915322629630694  0.5012270045810183  0.4440277800053636
  0.3320148261978630  0.1668457078915750  0.3951485493665245
  0.3332075372453289  0.6705002590040152  0.3924082471309802
  0.8330332254330131  0.1681211828072477  0.3967444824658060
  0.8309857141389898  0.6657963557027031  0.3960715473555680
  0.1687381927666110  0.3358747450388222  0.3941579977730711
  0.1652939594473963  0.8335196563974279  0.3949087198853150
  0.6625876238595367  0.3330745199506921  0.3966328373073367
  0.6659396452567776  0.8319053823795315  0.3959366255445218
  0.3176035095597740  0.3224678593252008  0.3607635384878805
  0.3176257051407632  0.8273957369401117  0.3615934397937579
  0.8164625297971497  0.3243605756837411  0.3645128355045131
  0.8181588591094098  0.8248713217767545  0.3632325574434248
  0.1752479916718030  0.4972027892611450  0.3611561218275412
  0.1728226053703779  0.9934796490228592  0.3626654670769653
  0.6753716186910310  0.4934492369057182  0.3632020756402170
  0.6761402006335118  0.9937611953415839  0.3635156169074847
  0.0052283383288625  0.1841177125678541  0.3630946353561413
  0.0039984730776723  0.6808795723736765  0.3629915456791650
  0.5049179763681408  0.1799182495378631  0.3633820809492292
  0.5050972434837604  0.6803087427217349  0.3627418948856160
  0.0112994999828899  0.3303097779029187  0.4284310254763142
  0.0061333878552716  0.8235440920456369  0.4281249921657917
  0.5004191058809013  0.3244834808437176  0.4276433921016931
  0.4992599955811201  0.8194752220077248  0.4270307658485635
  0.1745327020046901  0.1820596794104716  0.4275305130973521
  0.1776791849251680  0.6789665142425036  0.4262600967727579
  0.6733947867240957  0.1806725837554453  0.4288831601703151
  0.6720168655323633  0.6811363329967648  0.4281334467574993
  0.3168843697268358  0.9923537944898086  0.4275889481851749
  0.8160084566967853  0.4940265092495792  0.4288149203403009
  0.8171366597805161  0.9940795494417500  0.4284231076360072
  0.3403458491298679  0.4853587665326344  0.4234764338951535
 
  0.00000000E+00  0.00000000E+00  0.00000000E+00
  0.00000000E+00  0.00000000E+00  0.00000000E+00
  0.00000000E+00  0.00000000E+00  0.00000000E+00
  0.00000000E+00  0.00000000E+00  0.00000000E+00
  0.00000000E+00  0.00000000E+00  0.00000000E+00
  0.00000000E+00  0.00000000E+00  0.00000000E+00
  0.00000000E+00  0.00000000E+00  0.00000000E+00
  0.00000000E+00  0.00000000E+00  0.00000000E+00
  0.00000000E+00  0.00000000E+00  0.00000000E+00
  0.00000000E+00  0.00000000E+00  0.00000000E+00
  0.00000000E+00  0.00000000E+00  0.00000000E+00
  0.00000000E+00  0.00000000E+00  0.00000000E+00
  0.00000000E+00  0.00000000E+00  0.00000000E+00
  0.00000000E+00  0.00000000E+00  0.00000000E+00
  0.00000000E+00  0.00000000E+00  0.00000000E+00
  0.00000000E+00  0.00000000E+00  0.00000000E+00
  0.00000000E+00  0.00000000E+00  0.00000000E+00
  0.00000000E+00  0.00000000E+00  0.00000000E+00
  0.00000000E+00  0.00000000E+00  0.00000000E+00
  0.00000000E+00  0.00000000E+00  0.00000000E+00
  0.00000000E+00  0.00000000E+00  0.00000000E+00
  0.00000000E+00  0.00000000E+00  0.00000000E+00
  0.00000000E+00  0.00000000E+00  0.00000000E+00
  0.00000000E+00  0.00000000E+00  0.00000000E+00
  0.00000000E+00  0.00000000E+00  0.00000000E+00
  0.00000000E+00  0.00000000E+00  0.00000000E+00
  0.00000000E+00  0.00000000E+00  0.00000000E+00
  0.00000000E+00  0.00000000E+00  0.00000000E+00
  0.00000000E+00  0.00000000E+00  0.00000000E+00
  0.00000000E+00  0.00000000E+00  0.00000000E+00
  0.00000000E+00  0.00000000E+00  0.00000000E+00
  0.00000000E+00  0.00000000E+00  0.00000000E+00
  0.00000000E+00  0.00000000E+00  0.00000000E+00
  0.00000000E+00  0.00000000E+00  0.00000000E+00
  0.00000000E+00  0.00000000E+00  0.00000000E+00
  0.00000000E+00  0.00000000E+00  0.00000000E+00
  0.00000000E+00  0.00000000E+00  0.00000000E+00
  0.00000000E+00  0.00000000E+00  0.00000000E+00
  0.00000000E+00  0.00000000E+00  0.00000000E+00
  0.00000000E+00  0.00000000E+00  0.00000000E+00
  0.00000000E+00  0.00000000E+00  0.00000000E+00
  0.00000000E+00  0.00000000E+00  0.00000000E+00
  0.00000000E+00  0.00000000E+00  0.00000000E+00
  0.00000000E+00  0.00000000E+00  0.00000000E+00
  0.00000000E+00  0.00000000E+00  0.00000000E+00
  0.00000000E+00  0.00000000E+00  0.00000000E+00
  0.00000000E+00  0.00000000E+00  0.00000000E+00
  0.00000000E+00  0.00000000E+00  0.00000000E+00
  0.00000000E+00  0.00000000E+00  0.00000000E+00
  0.00000000E+00  0.00000000E+00  0.00000000E+00
  0.00000000E+00  0.00000000E+00  0.00000000E+00
  0.00000000E+00  0.00000000E+00  0.00000000E+00
  0.00000000E+00  0.00000000E+00  0.00000000E+00
  0.00000000E+00  0.00000000E+00  0.00000000E+00
  0.00000000E+00  0.00000000E+00  0.00000000E+00
  0.00000000E+00  0.00000000E+00  0.00000000E+00
  0.00000000E+00  0.00000000E+00  0.00000000E+00
  0.00000000E+00  0.00000000E+00  0.00000000E+00
  0.00000000E+00  0.00000000E+00  0.00000000E+00
  0.00000000E+00  0.00000000E+00  0.00000000E+00
  0.00000000E+00  0.00000000E+00  0.00000000E+00
  0.00000000E+00  0.00000000E+00  0.00000000E+00
  0.00000000E+00  0.00000000E+00  0.00000000E+00
  0.00000000E+00  0.00000000E+00  0.00000000E+00
  0.00000000E+00  0.00000000E+00  0.00000000E+00
  0.00000000E+00  0.00000000E+00  0.00000000E+00
  0.00000000E+00  0.00000000E+00  0.00000000E+00
  0.00000000E+00  0.00000000E+00  0.00000000E+00
  0.00000000E+00  0.00000000E+00  0.00000000E+00
  0.00000000E+00  0.00000000E+00  0.00000000E+00
  0.00000000E+00  0.00000000E+00  0.00000000E+00
  0.00000000E+00  0.00000000E+00  0.00000000E+00
  0.00000000E+00  0.00000000E+00  0.00000000E+00
  0.00000000E+00  0.00000000E+00  0.00000000E+00
  0.00000000E+00  0.00000000E+00  0.00000000E+00
  0.00000000E+00  0.00000000E+00  0.00000000E+00
  0.00000000E+00  0.00000000E+00  0.00000000E+00
  0.00000000E+00  0.00000000E+00  0.00000000E+00
  0.00000000E+00  0.00000000E+00  0.00000000E+00
  0.00000000E+00  0.00000000E+00  0.00000000E+00
  0.00000000E+00  0.00000000E+00  0.00000000E+00
  0.00000000E+00  0.00000000E+00  0.00000000E+00
  0.00000000E+00  0.00000000E+00  0.00000000E+00
  0.00000000E+00  0.00000000E+00  0.00000000E+00
  0.00000000E+00  0.00000000E+00  0.00000000E+00
  0.00000000E+00  0.00000000E+00  0.00000000E+00
  0.00000000E+00  0.00000000E+00  0.00000000E+00
  0.00000000E+00  0.00000000E+00  0.00000000E+00
  0.00000000E+00  0.00000000E+00  0.00000000E+00
  0.00000000E+00  0.00000000E+00  0.00000000E+00
  0.00000000E+00  0.00000000E+00  0.00000000E+00
  0.00000000E+00  0.00000000E+00  0.00000000E+00
  0.00000000E+00  0.00000000E+00  0.00000000E+00
  0.00000000E+00  0.00000000E+00  0.00000000E+00
  0.00000000E+00  0.00000000E+00  0.00000000E+00
  0.00000000E+00  0.00000000E+00  0.00000000E+00
  0.00000000E+00  0.00000000E+00  0.00000000E+00
  0.00000000E+00  0.00000000E+00  0.00000000E+00
  0.00000000E+00  0.00000000E+00  0.00000000E+00
  0.00000000E+00  0.00000000E+00  0.00000000E+00
  0.00000000E+00  0.00000000E+00  0.00000000E+00
  0.00000000E+00  0.00000000E+00  0.00000000E+00
  0.00000000E+00  0.00000000E+00  0.00000000E+00
  0.00000000E+00  0.00000000E+00  0.00000000E+00
  0.00000000E+00  0.00000000E+00  0.00000000E+00
  0.00000000E+00  0.00000000E+00  0.00000000E+00
  0.00000000E+00  0.00000000E+00  0.00000000E+00
  0.00000000E+00  0.00000000E+00  0.00000000E+00
  0.00000000E+00  0.00000000E+00  0.00000000E+00
  0.00000000E+00  0.00000000E+00  0.00000000E+00
  0.00000000E+00  0.00000000E+00  0.00000000E+00
  0.00000000E+00  0.00000000E+00  0.00000000E+00
  0.00000000E+00  0.00000000E+00  0.00000000E+00
  0.00000000E+00  0.00000000E+00  0.00000000E+00
  0.00000000E+00  0.00000000E+00  0.00000000E+00
  0.00000000E+00  0.00000000E+00  0.00000000E+00
  0.00000000E+00  0.00000000E+00  0.00000000E+00
  0.00000000E+00  0.00000000E+00  0.00000000E+00
  0.00000000E+00  0.00000000E+00  0.00000000E+00
  0.00000000E+00  0.00000000E+00  0.00000000E+00
  0.00000000E+00  0.00000000E+00  0.00000000E+00
  0.00000000E+00  0.00000000E+00  0.00000000E+00
  0.00000000E+00  0.00000000E+00  0.00000000E+00
  0.00000000E+00  0.00000000E+00  0.00000000E+00
