cif2pos.py                              
   1.00000000000000     
    10.1501999999999999    0.0000000000000000    0.0000000000000000
    -5.0750846599999999    8.7903399100000001    0.0000000000000000
     0.0000000000000000   -0.0000704100000000   34.9384000000000015
   Mo   Si   N    Ni   Te   O    H 
    12    24    48    12     4    23     1
Direct
  0.1670683701735903 -0.0000375171731455  0.6096538083761918
  0.1671220149767931  0.4999866336235695  0.6097466415293989
  0.6671339841012511  0.0000746046248456  0.6096573515780499
  0.6670571482954305  0.5000143355986156  0.6096301031052149
  0.3338864777872689  0.3332749937445469  0.6096950967781121
  0.3338682127699499  0.8333482524842775  0.6097033820251293
  0.8339385353469494  0.3333940623974012  0.6096871588198476
  0.8337625198200153  0.8333261269267203  0.6096198595214080
  0.0005139011595358  0.1666527273573116  0.6096460001364861
  0.0005297105800993  0.6666299558120125  0.6097108662666174
  0.5004530556583860  0.1666763765552735  0.6096257189112022
  0.5006033347916730  0.6666995851508679  0.6097194654159214
  0.1670340684075551  0.1666606303794073  0.6959107759107406
  0.1670182400008490  0.6666794510614701  0.6959650085739830
  0.6670239089298741  0.1666730389945720  0.6959006670005377
  0.6669969578034991  0.6666796446639082  0.6959065723913115
  0.1675477444429382  0.1673119288169975  0.5234435575176078
  0.1679344225884316  0.6673944503234642  0.5235653206428995
  0.6676026011976661  0.1673597271243677  0.5234177373690444
  0.6678026473286840  0.6668805973682451  0.5232393968781546
  0.3337063317385898  0.0000175125444862  0.6959064525701493
  0.3336741147370451  0.4999862870580870  0.6959580060606319
  0.8336694863105102 -0.0000022193839586  0.6958965025454451
  0.8336725969649430  0.4999964777189393  0.6959174834259182
  0.3330444001356992  0.0001426472727939  0.5235006745584156
  0.3334824666376863  0.5001169740816357  0.5238412304668445
  0.8328881272829461  0.9997938425074728  0.5234138906342977
  0.8333517673588823  0.4999357828652142  0.5235978544459470
  0.0003233704280524  0.3333087197729711  0.6959365543153110
  0.0003121002792621  0.8333206819144432  0.6959010355151017
  0.5003181703061056  0.3333219838426886  0.6959004861626492
  0.5003862731087144  0.8333422290190939  0.6959319139135420
  0.0005340379099657  0.3326893721990520  0.5234488649930070
  0.0004297027335451  0.8326742914540818  0.5234473726036447
  0.5008427219146375  0.3331314792403879  0.5232288517360941
  0.5003741103187643  0.8327419163201846  0.5235524610854806
  0.1676719508356867  0.1672488053483585  0.5736892958723037
  0.1676202545937271  0.6669334793756606  0.5737671922580033
  0.6675426338608732  0.1671340322294792  0.5736959738574926
  0.6673027815683107  0.6671632544921140  0.5736360579154586
  0.1671430357199935  0.1666392297932171  0.6456178575513351
  0.1672043243658657  0.6667262040681612  0.6456774570555921
  0.6671533314706747  0.1667408609977288  0.6456102875546161
  0.6672063768763590  0.6667341022453411  0.6456129348210218
  0.1670006469502910  0.9999718726155856  0.7104537697280870
  0.1669848771029599  0.4999706687702200  0.7105158711121693
  0.6670528589389393  0.0000389144796549  0.7104645364670439
  0.6669852767829322  0.4999858980454662  0.7104573493756180
  0.1662018385713466  0.0002156474277457  0.5091628373576903
  0.1670435468225188  0.5002987435112634  0.5090150273713137
  0.6658813931596195  0.9998946097610533  0.5091313694953029
  0.6671640502871257  0.5000540599961836  0.5095604372331324
  0.3333196036047044  0.9998069324378435  0.5737333508654929
  0.3334769569665215  0.4999857415581105  0.5738900395483238
  0.8333275757116270  0.0000010472477918  0.5736821044648289
  0.8338238982506393  0.5000411967635743  0.5738402913325956
  0.3337554922618764  0.0000206572175033  0.6456154980752143
  0.3338214068527967  0.4999648467636877  0.6456814837490396
  0.8337635512636347  0.0000129973014465  0.6455960986053532
  0.8337321745419840  0.4999916664693892  0.6456337448715852
  0.3336799916257345  0.3332773682285035  0.7104805617540800
  0.3337115200400647  0.8333781116360051  0.7104890653306450
  0.8336752728536556  0.3333344176771457  0.7104727265670669
  0.8336794650360905  0.8333457917172471  0.7104505210193579
  0.3346428565846317  0.3347780298603572  0.5089255551708349
  0.3347624837712674  0.8342956941997839  0.5091325368332963
  0.8349785472825187  0.3342324311895052  0.5092410128737894
  0.8348200107965364  0.8342058367232833  0.5091367120284862
  0.0008369381959601  0.3332186555397860  0.5737121921467839
  0.0004995174900825  0.8328350568934024  0.5737012919292585
  0.5001976564387849  0.3328697440005699  0.5736224842111084
  0.5004398869339256  0.8328279443198899  0.5737515481052250
  0.0004743579166169  0.3332263746054254  0.6456492919162438
  0.0004131020847524  0.8333090529798012  0.6456073489193018
  0.5004674204803143  0.3332655810525821  0.6456049631269554
  0.5005600629739668  0.8333888009353260  0.6456437436668888
  0.0003475251436179  0.1666276216510883  0.7104662455395052
  0.0003271601540276  0.6666798962328893  0.7104807159509018
  0.5003548996431367  0.1666568085561525  0.7104542722345353
  0.5003731055119855  0.6666820332632949  0.7104886690438841
  0.5001388299643625  0.1655882689861461  0.5091539843514445
  0.4999263161217292  0.6654536826806451  0.5090196161838896
  0.0002016392471484  0.1656120490744249  0.5091509635867374
  0.0007091154195548  0.6656252166902616  0.5091637377049035
 -0.0017864073657346  0.0015222909178385  0.3505458043414205
 -0.0047392753626560  0.4982318682731303  0.3500506175656433
  0.5028660119925829  0.0016687009113812  0.3504728766138132
  0.5006434675645822  0.4989568446931770  0.3499752726944099
 -0.0000246783391539  0.0001309292858093  0.4414165269785825
  0.9984640578767706  0.5023034855774734  0.4414810241791436
  0.4978927678750004  0.9977146003385650  0.4417137282795811
  0.4915322629630693  0.5012270045810174  0.4440277800053608
  0.3320148261978647  0.1668457078915757  0.3951485493665244
  0.3332075372453311  0.6705002590040150  0.3924082471309802
  0.8330332254330105  0.1681211828072452  0.3967444824658088
  0.8309857141389865  0.6657963557027042  0.3960715473555712
  0.1687381927666105  0.3358747450388224  0.3941579977730713
  0.1652939594473984  0.8335196563974261  0.3949087198853140
  0.6625876238595350  0.3330745199506927  0.3966328373073362
  0.6659396452567768  0.8319053823795307  0.3959366255445227
  0.3176035095597737  0.3224678593252000  0.3607635384878793
  0.3176257051407648  0.8273957369401091  0.3615934397937560
  0.8164625297971462  0.3243605756837379  0.3645128355045095
  0.8181588591094091  0.8248713217767547  0.3632325574434234
  0.1752479916718005  0.4972027892611476  0.3611561218275378
  0.1728226053703787  0.9934796490228620  0.3626654670769652
  0.6753716186910319  0.4934492369057192  0.3632020756402171
  0.6761402006335117  0.9937611953415834  0.3635156169074860
  0.0052283383288605  0.1841177125678561  0.3630946353561387
  0.0039984730776750  0.6808795723736767  0.3629915456791624
  0.5049179763681426  0.1799182495378640  0.3633820809492299
  0.5050972434837632  0.6803087427217368  0.3627418948856166
  0.0112994999828923  0.3303097779029152  0.4284310254763122
  0.0061333878552702  0.8235440920456334  0.4281249921657924
  0.5004191058809010  0.3244834808437171  0.4276433921016896
  0.4992599955811224  0.8194752220077225  0.4270307658485657
  0.1745327020046887  0.1820596794104749  0.4275305130973521
  0.1776791849251693  0.6789665142425055  0.4262600967727598
  0.6733947867240933  0.1806725837554466  0.4288831601703137
  0.6720168655323639  0.6811363329967626  0.4281334467575010
  0.3168843697268353  0.9923537944898119  0.4275889481851716
  0.8160084566967888  0.4940265092495797  0.4288149203402992
  0.8171366597805156  0.9940795494417529  0.4284231076360066
  0.3403458491298677  0.4853587665326376  0.4234764338951517
 
  0.00000000E+00  0.00000000E+00  0.00000000E+00
  0.00000000E+00  0.00000000E+00  0.00000000E+00
  0.00000000E+00  0.00000000E+00  0.00000000E+00
  0.00000000E+00  0.00000000E+00  0.00000000E+00
  0.00000000E+00  0.00000000E+00  0.00000000E+00
  0.00000000E+00  0.00000000E+00  0.00000000E+00
  0.00000000E+00  0.00000000E+00  0.00000000E+00
  0.00000000E+00  0.00000000E+00  0.00000000E+00
  0.00000000E+00  0.00000000E+00  0.00000000E+00
  0.00000000E+00  0.00000000E+00  0.00000000E+00
  0.00000000E+00  0.00000000E+00  0.00000000E+00
  0.00000000E+00  0.00000000E+00  0.00000000E+00
  0.00000000E+00  0.00000000E+00  0.00000000E+00
  0.00000000E+00  0.00000000E+00  0.00000000E+00
  0.00000000E+00  0.00000000E+00  0.00000000E+00
  0.00000000E+00  0.00000000E+00  0.00000000E+00
  0.00000000E+00  0.00000000E+00  0.00000000E+00
  0.00000000E+00  0.00000000E+00  0.00000000E+00
  0.00000000E+00  0.00000000E+00  0.00000000E+00
  0.00000000E+00  0.00000000E+00  0.00000000E+00
  0.00000000E+00  0.00000000E+00  0.00000000E+00
  0.00000000E+00  0.00000000E+00  0.00000000E+00
  0.00000000E+00  0.00000000E+00  0.00000000E+00
  0.00000000E+00  0.00000000E+00  0.00000000E+00
  0.00000000E+00  0.00000000E+00  0.00000000E+00
  0.00000000E+00  0.00000000E+00  0.00000000E+00
  0.00000000E+00  0.00000000E+00  0.00000000E+00
  0.00000000E+00  0.00000000E+00  0.00000000E+00
  0.00000000E+00  0.00000000E+00  0.00000000E+00
  0.00000000E+00  0.00000000E+00  0.00000000E+00
  0.00000000E+00  0.00000000E+00  0.00000000E+00
  0.00000000E+00  0.00000000E+00  0.00000000E+00
  0.00000000E+00  0.00000000E+00  0.00000000E+00
  0.00000000E+00  0.00000000E+00  0.00000000E+00
  0.00000000E+00  0.00000000E+00  0.00000000E+00
  0.00000000E+00  0.00000000E+00  0.00000000E+00
  0.00000000E+00  0.00000000E+00  0.00000000E+00
  0.00000000E+00  0.00000000E+00  0.00000000E+00
  0.00000000E+00  0.00000000E+00  0.00000000E+00
  0.00000000E+00  0.00000000E+00  0.00000000E+00
  0.00000000E+00  0.00000000E+00  0.00000000E+00
  0.00000000E+00  0.00000000E+00  0.00000000E+00
  0.00000000E+00  0.00000000E+00  0.00000000E+00
  0.00000000E+00  0.00000000E+00  0.00000000E+00
  0.00000000E+00  0.00000000E+00  0.00000000E+00
  0.00000000E+00  0.00000000E+00  0.00000000E+00
  0.00000000E+00  0.00000000E+00  0.00000000E+00
  0.00000000E+00  0.00000000E+00  0.00000000E+00
  0.00000000E+00  0.00000000E+00  0.00000000E+00
  0.00000000E+00  0.00000000E+00  0.00000000E+00
  0.00000000E+00  0.00000000E+00  0.00000000E+00
  0.00000000E+00  0.00000000E+00  0.00000000E+00
  0.00000000E+00  0.00000000E+00  0.00000000E+00
  0.00000000E+00  0.00000000E+00  0.00000000E+00
  0.00000000E+00  0.00000000E+00  0.00000000E+00
  0.00000000E+00  0.00000000E+00  0.00000000E+00
  0.00000000E+00  0.00000000E+00  0.00000000E+00
  0.00000000E+00  0.00000000E+00  0.00000000E+00
  0.00000000E+00  0.00000000E+00  0.00000000E+00
  0.00000000E+00  0.00000000E+00  0.00000000E+00
  0.00000000E+00  0.00000000E+00  0.00000000E+00
  0.00000000E+00  0.00000000E+00  0.00000000E+00
  0.00000000E+00  0.00000000E+00  0.00000000E+00
  0.00000000E+00  0.00000000E+00  0.00000000E+00
  0.00000000E+00  0.00000000E+00  0.00000000E+00
  0.00000000E+00  0.00000000E+00  0.00000000E+00
  0.00000000E+00  0.00000000E+00  0.00000000E+00
  0.00000000E+00  0.00000000E+00  0.00000000E+00
  0.00000000E+00  0.00000000E+00  0.00000000E+00
  0.00000000E+00  0.00000000E+00  0.00000000E+00
  0.00000000E+00  0.00000000E+00  0.00000000E+00
  0.00000000E+00  0.00000000E+00  0.00000000E+00
  0.00000000E+00  0.00000000E+00  0.00000000E+00
  0.00000000E+00  0.00000000E+00  0.00000000E+00
  0.00000000E+00  0.00000000E+00  0.00000000E+00
  0.00000000E+00  0.00000000E+00  0.00000000E+00
  0.00000000E+00  0.00000000E+00  0.00000000E+00
  0.00000000E+00  0.00000000E+00  0.00000000E+00
  0.00000000E+00  0.00000000E+00  0.00000000E+00
  0.00000000E+00  0.00000000E+00  0.00000000E+00
  0.00000000E+00  0.00000000E+00  0.00000000E+00
  0.00000000E+00  0.00000000E+00  0.00000000E+00
  0.00000000E+00  0.00000000E+00  0.00000000E+00
  0.00000000E+00  0.00000000E+00  0.00000000E+00
  0.00000000E+00  0.00000000E+00  0.00000000E+00
  0.00000000E+00  0.00000000E+00  0.00000000E+00
  0.00000000E+00  0.00000000E+00  0.00000000E+00
  0.00000000E+00  0.00000000E+00  0.00000000E+00
  0.00000000E+00  0.00000000E+00  0.00000000E+00
  0.00000000E+00  0.00000000E+00  0.00000000E+00
  0.00000000E+00  0.00000000E+00  0.00000000E+00
  0.00000000E+00  0.00000000E+00  0.00000000E+00
  0.00000000E+00  0.00000000E+00  0.00000000E+00
  0.00000000E+00  0.00000000E+00  0.00000000E+00
  0.00000000E+00  0.00000000E+00  0.00000000E+00
  0.00000000E+00  0.00000000E+00  0.00000000E+00
  0.00000000E+00  0.00000000E+00  0.00000000E+00
  0.00000000E+00  0.00000000E+00  0.00000000E+00
  0.00000000E+00  0.00000000E+00  0.00000000E+00
  0.00000000E+00  0.00000000E+00  0.00000000E+00
  0.00000000E+00  0.00000000E+00  0.00000000E+00
  0.00000000E+00  0.00000000E+00  0.00000000E+00
  0.00000000E+00  0.00000000E+00  0.00000000E+00
  0.00000000E+00  0.00000000E+00  0.00000000E+00
  0.00000000E+00  0.00000000E+00  0.00000000E+00
  0.00000000E+00  0.00000000E+00  0.00000000E+00
  0.00000000E+00  0.00000000E+00  0.00000000E+00
  0.00000000E+00  0.00000000E+00  0.00000000E+00
  0.00000000E+00  0.00000000E+00  0.00000000E+00
  0.00000000E+00  0.00000000E+00  0.00000000E+00
  0.00000000E+00  0.00000000E+00  0.00000000E+00
  0.00000000E+00  0.00000000E+00  0.00000000E+00
  0.00000000E+00  0.00000000E+00  0.00000000E+00
  0.00000000E+00  0.00000000E+00  0.00000000E+00
  0.00000000E+00  0.00000000E+00  0.00000000E+00
  0.00000000E+00  0.00000000E+00  0.00000000E+00
  0.00000000E+00  0.00000000E+00  0.00000000E+00
  0.00000000E+00  0.00000000E+00  0.00000000E+00
  0.00000000E+00  0.00000000E+00  0.00000000E+00
  0.00000000E+00  0.00000000E+00  0.00000000E+00
  0.00000000E+00  0.00000000E+00  0.00000000E+00
  0.00000000E+00  0.00000000E+00  0.00000000E+00
  0.00000000E+00  0.00000000E+00  0.00000000E+00
  0.00000000E+00  0.00000000E+00  0.00000000E+00
