Ni Te O 
 1.0000000000000000
    15.6635379790999991    0.0000000000000000    0.0000000000000000
    -7.8317682557000001   13.5648328185999993    0.0000000000000000
     0.0000000000000000    0.0000000000000000   27.8862991332999997
 Ni  Te  O  
  27   9  54
Cartesian
 -0.1345238554458416 -0.2098165172990181 13.5390135286855546
 -2.8802419896862457  4.5440086147516494 13.2408766479623825
 -5.1097227381518948  9.1704948919126501 13.3911133928069095
  5.6301881453768035 -0.2807782519170567 13.7510735965971485
  2.6129010292278654  4.7686551300385078 13.4904314877105360
  0.0525357863090793  9.4287244117165709 13.7530728961636939
  9.9984935674447311  0.1708399143806714 13.3760891618141500
  8.3064110756288052  3.9938909699972291 13.5230046952189387
  5.3075591469223298  9.3153159145352511 13.3401235520550259
  7.9084199610463335 13.5402265361346696 16.2612626934833884
 13.3979979549559438  4.8810412582036857 15.9518495760009120
 10.2998161790041323  8.7321257304163815 15.9290679984662731
 -3.0502818405057130 13.8318497820869641 16.1469735240361842
  2.4604946287068259  4.3214636212835336 16.0984216377513647
 -0.0225122293720472  8.8244861498467309 16.4633128917224028
  2.7868126302416876 13.3664030485981282 15.9263708092223535
  7.5796687363766289  5.0136713798505363 16.2382753530185546
  5.1834627223947525  8.6374312585428736 16.0363667852119534
  2.4582563497007843  1.4271628705289265 14.8038940258918803
  0.0270078423171616  6.1328850270319162 14.7770320457907225
 -2.6506666712037941 10.6910511675343809 14.6169922144128996
  7.9627629662971460  1.7151146639927592 15.0538306197898137
  5.4012238610139587  5.9130873138949802 14.4333011515945007
  2.4393328236440333 10.3881900347662164 15.2453770595578657
 13.0910421634724692  1.3976402867381101 14.8011065916455582
 10.6819305489744174  6.0336952103405324 14.9260043970900966
  7.6981393057485930 10.4578613373587128 14.3754989500445820
 -0.1167280798936991  3.0770997712803672 14.7869437801025025
 -2.4208206299386830  7.7220907589233594 14.7133173534987094
 -5.4003812143519667 12.0241059802117949 14.5201210764113107
  5.1788723311537739  2.8583805121781434 14.7679199866719220
  2.5873259928923491  7.5276897607001709 14.6661078661465432
  0.0802511545793540 12.2404939572025455 15.1498866655216400
 10.5947758926664353  3.2046080102532803 14.9004808696296767
  7.9031151828853652  7.3444241723876633 14.6507448740525597
  5.0156898727232084 11.9062056730196240 14.7247603144006955
  1.5417611592456744  3.1111025216919832 13.6303709989597763
 -0.7782241087398786  7.6923628907680479 13.7135649173255114
 -3.6667658651846966 11.9980010456689783 13.6281522340049150
  6.7885825343810717  2.8061245689419203 13.6840127309455291
  4.3000529712132964  7.6260082293266374 13.5579859538056464
  1.7578428430609430 12.0300229739870499 14.1804263792533352
 12.1681732023603999  2.8256004580445797 13.7176062823278127
  9.7394228512158048  7.4081637022688174 13.8430175329311496
  6.5123232787915475 11.7336270805079739 13.3634987425861347
 -1.0789532756586042  4.5499097739635097 13.7959246919664622
 -3.1470888899840177  9.0204777537809164 13.5163061064291661
 -6.1177287336283825 13.5876916201896591 13.6423315489599872
  4.4644952918116001  4.0549795890440921 13.4891272177039010
  1.8564192781603068  9.0324224817752778 13.8177424759861704
 -0.2877548160373173 13.6574734962963102 13.8768478820187902
 10.2904282081985468  4.5932718298807895 13.6317384408974043
  7.1290210428842231  8.6369585847589079 13.2870871492487108
  4.0858049670279737 13.4825376817512517 13.8162989997952561
 -0.8438619409484651  1.6327976159952071 13.6918394822939788
 -3.3390309337429511  6.2852891854938395 13.6829059426150117
 -6.1982760287966503 10.7333404247433410 13.2689470042484530
  4.4306745667847007  1.2465185788492199 13.9828240176866423
  1.8254288117415591  6.4777418158580646 13.3561859124137836
 -0.7675310529328584 11.2162718502151026 13.7314946294667148
  9.4672187994006656  1.9845673060435081 13.7189212693476250
  7.3914187974304770  5.8102655166007615 13.5496071485765981
  3.9921579238343741 10.6751037429370470 13.6280092592963342
 -1.6794979515757271  3.0146405540558061 15.7933295897139203
 -3.9190497904769916  7.4763212721319876 15.8646035586301579
 -7.0016701435692399 11.8584342327646191 15.5146175655708660
  3.7313796360143172  2.7457153880559058 16.0198681521037116
  1.1405346035098971  7.4018408371221440 15.8976707922653873
 -1.7732256702323357 12.2768059575567641 15.8616215448136231
  8.7625206625140759  3.5362397951640152 15.5620620080076009
  6.2943050781194163  7.1279452540827339 15.6478336864927705
  3.7923376750174302 11.7661418353302629 16.1580661592300068
  0.8060056124824790  1.8115852770329570 16.0274366306071201
 -1.5585200457600108  6.5785446177356599 16.0085458036671184
 -4.7155836526083403 10.4711633812849829 15.3716528335385103
  6.2222667800720810  1.7165836808852002 16.0789130061706906
  3.4974069755773258  5.9035193695507679 15.4700110263415667
  0.6810220806578393 10.5290373225711864 16.0222408397354847
 11.2645931337522196  1.6294242085973187 15.8844703704103001
  8.7915531296211373  6.3232837919737266 16.0009222910419169
  6.0470466865588204 10.3061997350751735 15.5106591545303640
  0.5970938991236124  4.5358566693644136 15.9562467419146685
 -1.7353856167080706  9.2444934553818729 15.6156616246795128
 -4.8087155321988657 13.1905283007898113 15.8953870580659196
  5.8102521392493616  4.4612779792443309 15.7844887417913569
  3.3089840676062106  8.6712472859417833 16.0657245106850830
  0.7626946767992488 13.5776782789754513 16.3694919492190607
 11.3824445046685021  4.5713521127327192 16.1527471165488841
  8.4151840722669817  8.9891216427726803 15.6104945335722238
  6.0715674618049595 13.1746773240676998 15.7643099959672437
Cartesian
  0.0011824399508068  0.0018871324161062  0.0025984181563033
 -0.0022007172065540  0.0000109103137463 -0.0009746770698647
 -0.0015601602594357  0.0011492381342536  0.0023713754981443
  0.0005355115308763 -0.0014083318665247  0.0035814149583741
 -0.0016429931996180 -0.0007119629760988 -0.0010009992680479
  0.0020830375712053 -0.0010195698679839 -0.0038299246449634
  0.0006937776150123 -0.0001810510620210  0.0014042963628103
 -0.0002270605708293 -0.0013267548611416 -0.0001204997331758
 -0.0017439934556020 -0.0010389087935720 -0.0039715672551997
 -0.0043414542897056  0.0011104849336007  0.0027802702653542
 -0.0031301902011918  0.0004537963243270  0.0023807172363370
 -0.0012221812130168 -0.0031756188657422 -0.0021836617920875
  0.0037684238010602  0.0003533903201254  0.0034838930004179
 -0.0020342256212760 -0.0012497410674205  0.0030884852064672
 -0.0009116623094487 -0.0039161583282322  0.0006635108215072
 -0.0009453587854149 -0.0004698999604061 -0.0010120718300564
  0.0013878825111497 -0.0019543123107060  0.0034500039327543
  0.0023484268602520  0.0029362206780288 -0.0017712528232968
 -0.0029759160613700  0.0026015362889832  0.0001530907027595
  0.0038945244963107 -0.0019099506049227 -0.0009785568213140
  0.0006062096640662 -0.0032243237825762 -0.0048167233707562
  0.0040070678466426  0.0008792434892042  0.0004167698560828
  0.0016695041131455  0.0004851952678342 -0.0011183196289254
 -0.0022626627020428  0.0007193596635064 -0.0041208672127610
  0.0037940250755117  0.0038770522293893  0.0016273602585181
 -0.0010775212228611  0.0011305063166690  0.0016413374574455
  0.0004047428504691  0.0025315531863764 -0.0032565543346448
  0.0014098959067877 -0.0000427619012511 -0.0031726429553525
  0.0001298307717778 -0.0012608306947083  0.0006818005928086
 -0.0009576748477679 -0.0002947876057329 -0.0014972300795574
  0.0011671409609122  0.0017014244574722  0.0007270676248890
  0.0008794498187197  0.0019832476858967  0.0009588214355255
 -0.0007354755182496  0.0005194343116226 -0.0007822448101019
  0.0002242421744531 -0.0009928084103496  0.0012013044715158
 -0.0019292676139286 -0.0009887001562987  0.0027475311421227
  0.0013434205103650 -0.0025694618435205 -0.0009724499389932
 -0.0017872627228963  0.0014699571938065  0.0032672402349638
 -0.0099757561962121  0.0005674601998279  0.0032533682686199
  0.0032993450417753 -0.0019708090761649 -0.0008540297349205
  0.0027399227888580  0.0004640883823380 -0.0051810527356629
  0.0039505292190131 -0.0061590733656491 -0.0035643687094216
 -0.0019017013218227  0.0071045912454007 -0.0047110753491645
  0.0003774958011736  0.0011377574487412  0.0032381667160629
 -0.0014695720843640  0.0075904554916168  0.0016061509782791
  0.0010719438454862  0.0032755262302604 -0.0039679950537373
  0.0010503430215888 -0.0056233970427846 -0.0028136321931637
 -0.0038005337232264  0.0034109514254452 -0.0014481495775688
  0.0037626320843932 -0.0045179539407913  0.0049796227965431
 -0.0021268740042698  0.0119134906691232  0.0052794365643228
 -0.0026639776580498  0.0005037247540431 -0.0005351588219299
  0.0069792818664517  0.0022943314844159 -0.0031339995946179
  0.0054010457498435  0.0018949273613572  0.0025513391705544
 -0.0021724518361397 -0.0025645914710769  0.0031911541194437
  0.0025584073097285  0.0033702031316487 -0.0008024759594679
  0.0010459246080321 -0.0019591794200882 -0.0034571813117820
  0.0001771154013271 -0.0021202709088217 -0.0010608061744566
 -0.0009209469701846  0.0028768271243786  0.0065148176478287
 -0.0018291826728729 -0.0000568042082760  0.0023810751723993
  0.0053559326610958 -0.0057282517222057  0.0011321187891071
 -0.0042746859894846  0.0005017320397069  0.0074650031467476
 -0.0023330183433697 -0.0036358005262020 -0.0028112622893031
 -0.0013558995946511 -0.0005392268672268  0.0030518798131891
  0.0001522954966460 -0.0021436998528372  0.0045460330220885
 -0.0040187249407408  0.0013233400516716 -0.0048659852918713
 -0.0020701586614746 -0.0035218917937343 -0.0002630791009781
  0.0000210532208017 -0.0006788983282459  0.0025914061741953
 -0.0001919051623497  0.0046058083209144 -0.0037069915636886
 -0.0016637174136309 -0.0012881736062080 -0.0063848344942877
 -0.0039263488369107 -0.0014285588166722  0.0044335966215420
  0.0010154448052343  0.0041540491106057 -0.0028048410794798
 -0.0007062798876823  0.0017715490887590 -0.0057695800193389
  0.0000845256820617  0.0121475198603167 -0.0003238227683443
  0.0005079076584309 -0.0053721655887599  0.0011364640196391
  0.0052100704808887 -0.0003581856997518  0.0014423276674841
  0.0003568656490277  0.0059740307756517  0.0025734134315306
 -0.0058052502750278  0.0013065682863376 -0.0033326658232410
 -0.0039142312926841 -0.0065229031354858  0.0047097031012217
 -0.0013491884965690 -0.0037317495935844 -0.0021726434490485
 -0.0048278648295393  0.0023116417063792  0.0000150291967405
 -0.0006607675168900 -0.0080541599887764  0.0031462301461605
 -0.0090127985267332  0.0030702844839939  0.0062024360618756
  0.0010622980504120  0.0047025960393599 -0.0038007567492022
 -0.0007554635991958 -0.0048701530616552 -0.0017372831108360
  0.0049222890259085 -0.0011787862431296  0.0012872703117571
  0.0062113965957565  0.0013623587840156  0.0023337663795677
  0.0032312639692514  0.0043350733332720 -0.0012938747765782
  0.0044734219217006 -0.0022517165654819 -0.0016665597020243
 -0.0010336604391571  0.0021422120420073 -0.0049202609020585
 -0.0001376059096776 -0.0024382071073108  0.0013751751357879
 -0.0009128319767886  0.0020054905076779 -0.0072384031605649
