This file is generated by VASPKIT code
 1.000000
   15.6635379773496606    0.0000000000000000    0.0000000000000000
   -7.8317689886748303   13.5648327264196702    0.0000000000000000
    0.0000000000000000    0.0000000000000000   27.8862999999999985
   Ni   Te   O 
   27    9   54
Direct
    0.0000026854097683    0.0000011377009588    0.4768493171858794     Ni1
    0.0000026854097683    0.3333344710342920    0.4768493171858794     Ni2
    0.0000026854097683    0.6666678043676254    0.4768493171858794     Ni3
    0.3333360187431018    0.0000011377009588    0.4768493171858794     Ni4
    0.3333360187431018    0.3333344710342920    0.4768493171858794     Ni5
    0.3333360187431018    0.6666678043676254    0.4768493171858794     Ni6
    0.6666693520764351    0.0000011377009588    0.4768493171858794     Ni7
    0.6666693520764351    0.3333344710342920    0.4768493171858794     Ni8
    0.6666693520764351    0.6666678043676254    0.4768493171858794     Ni9
   -0.0000020916728873   -0.0000018837875113    0.5829054703091430    Ni10
   -0.0000020916728873    0.3333314495458219    0.5829054703091430    Ni11
   -0.0000020916728873    0.6666647828791552    0.5829054703091430    Ni12
    0.3333312416604459   -0.0000018837875113    0.5829054703091430    Ni13
    0.3333312416604459    0.3333314495458219    0.5829054703091430    Ni14
    0.3333312416604459    0.6666647828791552    0.5829054703091430    Ni15
    0.6666645749937792   -0.0000018837875113    0.5829054703091430    Ni16
    0.6666645749937792    0.3333314495458219    0.5829054703091430    Ni17
    0.6666645749937792    0.6666647828791552    0.5829054703091430    Ni18
    0.2222225456866948    0.1111117748935393    0.5297274782756947    Ni19
    0.2222225456866948    0.4444451082268726    0.5297274782756947    Ni20
    0.2222225456866948    0.7777784415602059    0.5297274782756947    Ni21
    0.5555558790200281    0.1111117748935393    0.5297274782756947    Ni22
    0.5555558790200281    0.4444451082268726    0.5297274782756947    Ni23
    0.5555558790200281    0.7777784415602059    0.5297274782756947    Ni24
    0.8888892123533614    0.1111117748935393    0.5297274782756947    Ni25
    0.8888892123533614    0.4444451082268726    0.5297274782756947    Ni26
    0.8888892123533614    0.7777784415602059    0.5297274782756947    Ni27
    0.1111113435595404    0.2222216104039454    0.5299050808278685     Te1
    0.1111113435595404    0.5555549437372787    0.5299050808278685     Te2
    0.1111113435595404    0.8888882770706120    0.5299050808278685     Te3
    0.4444446768928738    0.2222216104039454    0.5299050808278685     Te4
    0.4444446768928738    0.5555549437372787    0.5299050808278685     Te5
    0.4444446768928738    0.8888882770706120    0.5299050808278685     Te6
    0.7777780102262072    0.2222216104039454    0.5299050808278685     Te7
    0.7777780102262072    0.5555549437372787    0.5299050808278685     Te8
    0.7777780102262072    0.8888882770706120    0.5299050808278685     Te9
    0.2125592599738665    0.2179141027760537    0.4902165009429618      O1
    0.2125592599738665    0.5512474361093871    0.4902165009429618      O2
    0.2125592599738665    0.8845807694427203    0.4902165009429618      O3
    0.5458925933071997    0.2179141027760537    0.4902165009429618      O4
    0.5458925933071997    0.5512474361093871    0.4902165009429618      O5
    0.5458925933071997    0.8845807694427203    0.4902165009429618      O6
    0.8792259266405330    0.2179141027760537    0.4902165009429618      O7
    0.8792259266405330    0.5512474361093871    0.4902165009429618      O8
    0.8792259266405330    0.8845807694427203    0.4902165009429618      O9
    0.1154186861597383    0.3279767660271000    0.4902174584232414     O10
    0.1154186861597383    0.6613100993604334    0.4902174584232414     O11
    0.1154186861597383    0.9946434326937668    0.4902174584232414     O12
    0.4487520194930716    0.3279767660271000    0.4902174584232414     O13
    0.4487520194930716    0.6613100993604334    0.4902174584232414     O14
    0.4487520194930716    0.9946434326937668    0.4902174584232414     O15
    0.7820853528264049    0.3279767660271000    0.4902174584232414     O16
    0.7820853528264049    0.6613100993604334    0.4902174584232414     O17
    0.7820853528264049    0.9946434326937668    0.4902174584232414     O18
    0.0053552573832467    0.1207753787746186    0.4902155278908815     O19
    0.0053552573832467    0.4541087121079519    0.4902155278908815     O20
    0.0053552573832467    0.7874420454412852    0.4902155278908815     O21
    0.3386885907165800    0.1207753787746186    0.4902155278908815     O22
    0.3386885907165800    0.4541087121079519    0.4902155278908815     O23
    0.3386885907165800    0.7874420454412852    0.4902155278908815     O24
    0.6720219240499132    0.1207753787746186    0.4902155278908815     O25
    0.6720219240499132    0.4541087121079519    0.4902155278908815     O26
    0.6720219240499132    0.7874420454412852    0.4902155278908815     O27
    0.0052346878232327    0.2178906737696369    0.5694907213629052     O28
    0.0052346878232327    0.5512240071029701    0.5694907213629052     O29
    0.0052346878232327    0.8845573404363035    0.5694907213629052     O30
    0.3385680211565660    0.2178906737696369    0.5694907213629052     O31
    0.3385680211565660    0.5512240071029701    0.5694907213629052     O32
    0.3385680211565660    0.8845573404363035    0.5694907213629052     O33
    0.6719013544898993    0.2178906737696369    0.5694907213629052     O34
    0.6719013544898993    0.5512240071029701    0.5694907213629052     O35
    0.6719013544898993    0.8845573404363035    0.5694907213629052     O36
    0.1154403230874250    0.1206767153031131    0.5694910488278957     O37
    0.1154403230874250    0.4540100486364465    0.5694910488278957     O38
    0.1154403230874250    0.7873433819697797    0.5694910488278957     O39
    0.4487736564207583    0.1206767153031131    0.5694910488278957     O40
    0.4487736564207583    0.4540100486364465    0.5694910488278957     O41
    0.4487736564207583    0.7873433819697797    0.5694910488278957     O42
    0.7821069897540917    0.1206767153031131    0.5694910488278957     O43
    0.7821069897540917    0.4540100486364465    0.5694910488278957     O44
    0.7821069897540917    0.7873433819697797    0.5694910488278957     O45
    0.2126576359227078    0.3281007241385477    0.5694903959535316     O46
    0.2126576359227078    0.6614340574718810    0.5694903959535316     O47
    0.2126576359227078    0.9947673908052143    0.5694903959535316     O48
    0.5459909692560412    0.3281007241385477    0.5694903959535316     O49
    0.5459909692560412    0.6614340574718810    0.5694903959535316     O50
    0.5459909692560412    0.9947673908052143    0.5694903959535316     O51
    0.8793243025893744    0.3281007241385477    0.5694903959535316     O52
    0.8793243025893744    0.6614340574718810    0.5694903959535316     O53
    0.8793243025893744    0.9947673908052143    0.5694903959535316     O54
