This file is generated by VASPKIT code
1.0
       15.6635379791         0.0000000000         0.0000000000
       -7.8317682557        13.5648328186         0.0000000000
        0.0000000000         0.0000000000        27.8862991333
   Ni   Te    O
   27    9   54
Cartesian
     0.000033153         0.000015433        13.297562711
    -2.610556303         4.521626436        13.297562711
    -5.221145799         9.043237511        13.297562711
     5.221212585         0.000015433        13.297562711
     2.610623129         4.521626436        13.297562711
     0.000033633         9.043237511        13.297562711
    10.442392067         0.000015433        13.297562711
     7.831802611         4.521626436        13.297562711
     5.221213115         9.043237511        13.297562711
     7.831751985        13.564806946        16.255076340
    13.052930744         4.521585201        16.255076340
    10.442341248         9.043196276        16.255076340
    -2.610606979        13.564806946        16.255076340
     2.610571780         4.521585201        16.255076340
    -0.000017716         9.043196276        16.255076340
     2.610572969        13.564806946        16.255076340
     7.831751729         4.521585201        16.255076340
     5.221162232         9.043196276        16.255076340
     2.610589706         1.507212653        14.772138380
     0.000000326         6.028823525        14.772138380
    -2.610589170        10.550434599        14.772138380
     7.831768954         1.507212653        14.772138380
     5.221179575         6.028823525        14.772138380
     2.610590078        10.550434599        14.772138380
    13.052947970         1.507212653        14.772138380
    10.442358590         6.028823525        14.772138380
     7.831769094        10.550434599        14.772138380
     0.000008566         3.014399028        14.777091595
    -2.610580697         7.536009698        14.777091595
    -5.221170427        12.057621177        14.777091595
     5.221188048         3.014399028        14.777091595
     2.610598785         7.536009698        14.777091595
     0.000009055        12.057621177        14.777091595
    10.442367530         3.014399028        14.777091595
     7.831778267         7.536009698        14.777091595
     5.221188537        12.057621177        14.777091595
     1.622777166         2.955968396        13.670323781
    -0.987812097         7.477579066        13.670323781
    -3.598401827        11.999190544        13.670323781
     6.843956648         2.955968396        13.670323781
     4.233367385         7.477579066        13.670323781
     1.622777655        11.999190544        13.670323781
    12.065135663         2.955968396        13.670323781
     9.454546400         7.477579066        13.670323781
     6.843956670        11.999190544        13.670323781
    -0.760773008         4.448949962        13.670350375
    -3.371362271         8.970560632        13.670350375
    -5.981952001        13.492172110        13.670350375
     4.460406240         4.448949962        13.670350375
     1.849816977         8.970560632        13.670350375
    -0.760772753        13.492172110        13.670350375
     9.681585722         4.448949962        13.670350375
     7.070996459         8.970560632        13.670350375
     4.460406729        13.492172110        13.670350375
    -0.862002501         1.638297828        13.670297186
    -3.472591939         6.159908801        13.670297186
    -6.083181202        10.681519471        13.670297186
     4.359176689         1.638297828        13.670297186
     1.748587251         6.159908801        13.670297186
    -0.862002012        10.681519471        13.670297186
     9.580356171         1.638297828        13.670297186
     6.969766733         6.159908801        13.670297186
     4.359177470        10.681519471        13.670297186
    -1.624475574         2.955650645        15.880988872
    -4.235064837         7.477261315        15.880988872
    -6.845654567        11.998872793        15.880988872
     3.596703915         2.955650645        15.880988872
     0.986114652         7.477261315        15.880988872
    -1.624475078        11.998872793        15.880988872
     8.817882930         2.955650645        15.880988872
     6.207293667         7.477261315        15.880988872
     3.596703937        11.998872793        15.880988872
     0.863091804         1.636959514        15.880997182
    -1.747497517         6.158570285        15.880997182
    -4.358087014        10.680181359        15.880997182
     6.084271053         1.636959514        15.880997182
     3.473681731         6.158570285        15.880997182
     0.863092235        10.680181359        15.880997182
    11.305450535         1.636959514        15.880997182
     8.694861213         6.158570285        15.880997182
     6.084271717        10.680181359        15.880997182
     0.761362137         4.450631294        15.880978899
    -1.849227359         8.972242368        15.880978899
    -4.459816622        13.493853038        15.880978899
     5.982541152         4.450631294        15.880978899
     3.371951656         8.972242368        15.880978899
     0.761362393        13.493853038        15.880978899
    11.203721101         4.450631294        15.880978899
     8.593131605         8.972242368        15.880978899
     5.982542342        13.493853038        15.880978899
