Generated by VASPKIT code               
   1.00000000000000     
    10.1501999999999999    0.0000000000000000    0.0000000000000000
    -5.0750846599999999    8.7903399100000001    0.0000000000000000
     0.0000000000000000   -0.0000704100000000   34.9384000000000015
   Mo   Si   N    Ni   Te   O    H 
    12    23    48    12     4    24     1
Selective dynamics
Direct
  0.1667775718819442  0.0046233792275530  0.6078066278132113   F   F   F
  0.1662312061431095  0.5041115362607300  0.6081974842931928   F   F   F
  0.6663108024967102  0.0047133316776495  0.6080904882838141   F   F   F
  0.6663987200109673  0.5047788918365796  0.6081608993697927   F   F   F
  0.3327739767524065  0.3379514770669516  0.6081832228866020   F   F   F
  0.3330653195548621  0.8381458663832149  0.6080325010139305   F   F   F
  0.8326494460295493  0.3376523148161539  0.6078317830497966   F   F   F
  0.8330651635398283  0.8373620610527581  0.6082152310036548   F   F   F
  0.0003030440627114  0.1705493099229258  0.6081052854714599   F   F   F
  0.9989936286147696  0.6698456081473054  0.6080887578082752   F   F   F
  0.4997031754539876  0.1708986133509214  0.6077989661001268   F   F   F
  0.4996463207693296  0.6707773495835667  0.6080457414732621   F   F   F
  0.1663388728841895  0.1705231374256400  0.6941912720997934   F   F   F
  0.1662432134457958  0.6705149114767295  0.6942550676342449   F   F   F
  0.6662689082242110  0.1705243852012828  0.6940922675365044   F   F   F
  0.6663393815108236  0.6705786003716980  0.6942966560716783   F   F   F
  0.1767116209298578  0.1795961725836008  0.5207364322045436   F   F   F
  0.1653854426980672  0.6695371044636502  0.5224497643760913   F   F   F
  0.6624967998206372  0.1694292923882941  0.5209585361645495   F   F   F
  0.6685176993158777  0.6679941745532574  0.5211358433343207   F   F   F
  0.3329873457924180  0.0038774569408986  0.6940651055192362   F   F   F
  0.3328852983216137  0.5038691895120664  0.6942888642632710   F   F   F
  0.8330160197144778  0.0038829769378310  0.6942655847171935   F   F   F
  0.8329015890496763  0.5038018290129003  0.6942059872779538   F   F   F
  0.3376830971886520  0.0070483239087906  0.5207105936578671   F   F   F
  0.3307676638615291  0.4990082715731248  0.5212940378753999   F   F   F
  0.8341382370323629  0.0040958142759564  0.5226313938231897   F   F   F
  0.8223050754329222  0.5025815886073133  0.5206931860166719   F   F   F
  0.9995839291532889  0.3371384928720644  0.6941689701793763   F   F   F
  0.9997253767415160  0.8371900069349252  0.6941723008456222   F   F   F
  0.4996199858982919  0.3371454896389139  0.6941685742269783   F   F   F
  0.4996382451698622  0.8372092564220850  0.6942126259309305   F   F   F
  0.9986845222300573  0.3348440858412758  0.5221650608429655   F   F   F
  0.0009417807613445  0.8354890730416926  0.5222614531969754   F   F   F
  0.4995612035366790  0.8344695276325069  0.5222517083630720   F   F   F
  0.1684325778275735  0.1722509226517346  0.5721109043783130   F   F   F
  0.1663466361641923  0.6707400542977950  0.5728156308761001   F   F   F
  0.6668376675169441  0.1722511002764548  0.5719692631957685   F   F   F
  0.6673475535074260  0.6718487428575131  0.5723405288276453   F   F   F
  0.1663033425322382  0.1704686134564355  0.6438964156619065   F   F   F
  0.1662023201282992  0.6708846609935364  0.6439601496254284   F   F   F
  0.6664285544869060  0.1711055637930556  0.6437586277314296   F   F   F
  0.6664479637944680  0.6713672181533354  0.6440131722616229   F   F   F
  0.1664284667968516  0.0038760454430360  0.7087296799420457   F   F   F
  0.1661259249362956  0.5038155749097655  0.7088656016703396   F   F   F
  0.6662976927940818  0.0039442628865487  0.7087795139569764   F   F   F
  0.6662482575939705  0.5037997304480371  0.7088358357168190   F   F   F
  0.1647981200779327  0.0033594207005478  0.5073274319110226   F   F   F
  0.1609368897361279  0.5036628162190624  0.5075429401930407   F   F   F
  0.6681847547345257  0.0006408906939299  0.5083694808651558   F   F   F
  0.6747452313820830  0.5170435110243972  0.5041143168443938   F   F   F
  0.3329674314492124  0.0053128546978272  0.5718670779303494   F   F   F
  0.3318559448384661  0.5042131370392724  0.5724180381385651   F   F   F
  0.8329394066907554  0.0039168063913451  0.5729333034399104   F   F   F
  0.8306307374744151  0.5034100330696916  0.5720323748832570   F   F   F
  0.3329921470118506  0.0043803696078442  0.6437309010308923   F   F   F
  0.3327756967310194  0.5046311034114410  0.6440164014677023   F   F   F
  0.8330765385717029  0.0042578151240278  0.6439862975197883   F   F   F
  0.8329320628410528  0.5038481183535595  0.6438943846090694   F   F   F
  0.3329490349576787  0.3371662232833543  0.7088251565275883   F   F   F
  0.3329298217235674  0.8372757677549885  0.7087695727389445   F   F   F
  0.8328415980534771  0.3370812144550754  0.7087436274288947   F   F   F
  0.8331135002757080  0.8372721155475276  0.7088636554648176   F   F   F
  0.3251241691322946  0.3417234739883455  0.5046554608232725   F   F   F
  0.3314210401644075  0.8322029072985160  0.5081650056053562   F   F   F
  0.8349628301018939  0.3387568798153708  0.5070644033414098   F   F   F
  0.8387222891011419  0.8424234563559665  0.5078079485409148   F   F   F
  0.9995355668076940  0.3365411013071480  0.5725407236343898   F   F   F
  0.9998281336991752  0.8363861016070970  0.5725776768952002   F   F   F
  0.4996317746587735  0.3384829633985262  0.5740547513363410   F   F   F
  0.4996667081859627  0.8372747259659477  0.5727015180943553   F   F   F
  0.9994622851942765  0.3371706259555012  0.6438598768800219   F   F   F
  0.9999155643513191  0.8372514627828096  0.6438593196430062   F   F   F
  0.4995927616806242  0.3373970866453888  0.6439599866138934   F   F   F
  0.4996331578184652  0.8378832241197784  0.6438970587857753   F   F   F
  0.9997014118850274  0.1705633250339105  0.7088221283900182   F   F   F
  0.9995436332309140  0.6704709429376194  0.7088259917579620   F   F   F
  0.4996057508650651  0.1704111333223040  0.7087156340988585   F   F   F
  0.4996189640905371  0.6705703589343273  0.7088634245601213   F   F   F
  0.5004393166560916  0.1439561212280935  0.5018791387491248   F   F   F
  0.4994819974306850  0.6687297077726342  0.5082577293198653   F   F   F
  0.9987781190371336  0.1678669065888627  0.5081466545856230   F   F   F
  0.0002702750023715  0.6681548362515528  0.5079266952230128   F   F   F
  0.9977213103989371  0.9927389952461780  0.3549891757486350   F   F   F
  0.0107991854145482  0.4983258425697414  0.3529629607890712   F   F   F
  0.5032396640913319  0.9856418848486186  0.3534452419168730   F   F   F
  0.4943860836620644  0.4962574394935118  0.3549062559213212   F   F   F
  0.9998614216085855  0.9899064375148967  0.4512766784823654   F   F   F
  0.9927634361695041  0.4921936698989597  0.4504843225118123   F   F   F
  0.5060457329669887  0.0051138433319053  0.4507809473360425   F   F   F
  0.4996311214666207  0.4681556495729993  0.4582810437629732   F   F   F
  0.3337277229608162  0.1561784645854019  0.3966630248606435   F   F   F
  0.3355658277279900  0.6598042097556700  0.3989776996223924   F   F   F
  0.8371502555359598  0.1613559515716787  0.3973788766512953   F   F   F
  0.8299908394305220  0.6580753965511335  0.3973029903634426   F   F   F
  0.1703986572675973  0.3270493272720145  0.4008849456082828   F   F   F
  0.1643334011784745  0.8232234256275461  0.3978909720907851   F   F   F
  0.6694171961044049  0.3269623487675801  0.3937512454949896   F   F   F
  0.6668228770323097  0.8235809401238470  0.4008012701241555   F   F   F
  0.3169516267710364  0.3063441736169281  0.3668578976259980   F   F   F
  0.3161717335607435  0.8156220308411193  0.3650048730888074   F   F   F
  0.8249287129797054  0.3199472646956707  0.3622632736136282   F   F   F
  0.8172472241934869  0.8182352713283620  0.3661638996635190   F   F   F
  0.1821035984446908  0.4828978035840379  0.3658186916746544   F   F   F
  0.1814434405936112  0.9970110622980854  0.3664677977017732   F   F   F
  0.6723032705933818  0.4861921453100848  0.3624721379659874   F   F   F
  0.6869870264515043  0.9953976396070914  0.3673449265517021   F   F   F
  0.9996086833131841  0.1739657789018452  0.3681785807662052   F   F   F
  0.0073119163405622  0.6785141929695158  0.3637098684122861   F   F   F
  0.5074748840699783  0.1704319600198190  0.3623430463191042   F   F   F
  0.5088819695561000  0.6828090285697286  0.3650528219741531   F   F   F
  0.9976631113936349  0.3162012218454819  0.4287059314547221   F   F   F
  0.0050133641107877  0.8182835178192036  0.4289467807355223   F   F   F
  0.4996108691248295  0.3046136004626590  0.4254855100898567   F   F   F
  0.5054803344248811  0.8251715536931599  0.4296483434282692   F   F   F
  0.1731485373417527  0.1679194170249545  0.4300437818294469   F   F   F
  0.1703986012850152  0.6701294539801594  0.4294140752954405   F   F   F
  0.6870581070969948  0.1744470650315861  0.4251275488240509   F   F   F
  0.6658335673415294  0.6625450421399890  0.4297111922486891   F   F   F
  0.3279018792788122  0.4855777706969633  0.4302506981761027   F   F   F
  0.3226942424550288  0.9958891281432258  0.4267499409797395   F   F   F
  0.8163045264620052  0.4835468496000530  0.4270238543405398   F   F   F
  0.8230488093032520  0.9889872001197872  0.4307258801810434   F   F   F
  0.4993239204572799  0.3435950665900219  0.5438488732729317   T   T   T
 
  0.00000000E+00  0.00000000E+00  0.00000000E+00
  0.00000000E+00  0.00000000E+00  0.00000000E+00
  0.00000000E+00  0.00000000E+00  0.00000000E+00
  0.00000000E+00  0.00000000E+00  0.00000000E+00
  0.00000000E+00  0.00000000E+00  0.00000000E+00
  0.00000000E+00  0.00000000E+00  0.00000000E+00
  0.00000000E+00  0.00000000E+00  0.00000000E+00
  0.00000000E+00  0.00000000E+00  0.00000000E+00
  0.00000000E+00  0.00000000E+00  0.00000000E+00
  0.00000000E+00  0.00000000E+00  0.00000000E+00
  0.00000000E+00  0.00000000E+00  0.00000000E+00
  0.00000000E+00  0.00000000E+00  0.00000000E+00
  0.00000000E+00  0.00000000E+00  0.00000000E+00
  0.00000000E+00  0.00000000E+00  0.00000000E+00
  0.00000000E+00  0.00000000E+00  0.00000000E+00
  0.00000000E+00  0.00000000E+00  0.00000000E+00
  0.00000000E+00  0.00000000E+00  0.00000000E+00
  0.00000000E+00  0.00000000E+00  0.00000000E+00
  0.00000000E+00  0.00000000E+00  0.00000000E+00
  0.00000000E+00  0.00000000E+00  0.00000000E+00
  0.00000000E+00  0.00000000E+00  0.00000000E+00
  0.00000000E+00  0.00000000E+00  0.00000000E+00
  0.00000000E+00  0.00000000E+00  0.00000000E+00
  0.00000000E+00  0.00000000E+00  0.00000000E+00
  0.00000000E+00  0.00000000E+00  0.00000000E+00
  0.00000000E+00  0.00000000E+00  0.00000000E+00
  0.00000000E+00  0.00000000E+00  0.00000000E+00
  0.00000000E+00  0.00000000E+00  0.00000000E+00
  0.00000000E+00  0.00000000E+00  0.00000000E+00
  0.00000000E+00  0.00000000E+00  0.00000000E+00
  0.00000000E+00  0.00000000E+00  0.00000000E+00
  0.00000000E+00  0.00000000E+00  0.00000000E+00
  0.00000000E+00  0.00000000E+00  0.00000000E+00
  0.00000000E+00  0.00000000E+00  0.00000000E+00
  0.00000000E+00  0.00000000E+00  0.00000000E+00
  0.00000000E+00  0.00000000E+00  0.00000000E+00
  0.00000000E+00  0.00000000E+00  0.00000000E+00
  0.00000000E+00  0.00000000E+00  0.00000000E+00
  0.00000000E+00  0.00000000E+00  0.00000000E+00
  0.00000000E+00  0.00000000E+00  0.00000000E+00
  0.00000000E+00  0.00000000E+00  0.00000000E+00
  0.00000000E+00  0.00000000E+00  0.00000000E+00
  0.00000000E+00  0.00000000E+00  0.00000000E+00
  0.00000000E+00  0.00000000E+00  0.00000000E+00
  0.00000000E+00  0.00000000E+00  0.00000000E+00
  0.00000000E+00  0.00000000E+00  0.00000000E+00
  0.00000000E+00  0.00000000E+00  0.00000000E+00
  0.00000000E+00  0.00000000E+00  0.00000000E+00
  0.00000000E+00  0.00000000E+00  0.00000000E+00
  0.00000000E+00  0.00000000E+00  0.00000000E+00
  0.00000000E+00  0.00000000E+00  0.00000000E+00
  0.00000000E+00  0.00000000E+00  0.00000000E+00
  0.00000000E+00  0.00000000E+00  0.00000000E+00
  0.00000000E+00  0.00000000E+00  0.00000000E+00
  0.00000000E+00  0.00000000E+00  0.00000000E+00
  0.00000000E+00  0.00000000E+00  0.00000000E+00
  0.00000000E+00  0.00000000E+00  0.00000000E+00
  0.00000000E+00  0.00000000E+00  0.00000000E+00
  0.00000000E+00  0.00000000E+00  0.00000000E+00
  0.00000000E+00  0.00000000E+00  0.00000000E+00
  0.00000000E+00  0.00000000E+00  0.00000000E+00
  0.00000000E+00  0.00000000E+00  0.00000000E+00
  0.00000000E+00  0.00000000E+00  0.00000000E+00
  0.00000000E+00  0.00000000E+00  0.00000000E+00
  0.00000000E+00  0.00000000E+00  0.00000000E+00
  0.00000000E+00  0.00000000E+00  0.00000000E+00
  0.00000000E+00  0.00000000E+00  0.00000000E+00
  0.00000000E+00  0.00000000E+00  0.00000000E+00
  0.00000000E+00  0.00000000E+00  0.00000000E+00
  0.00000000E+00  0.00000000E+00  0.00000000E+00
  0.00000000E+00  0.00000000E+00  0.00000000E+00
  0.00000000E+00  0.00000000E+00  0.00000000E+00
  0.00000000E+00  0.00000000E+00  0.00000000E+00
  0.00000000E+00  0.00000000E+00  0.00000000E+00
  0.00000000E+00  0.00000000E+00  0.00000000E+00
  0.00000000E+00  0.00000000E+00  0.00000000E+00
  0.00000000E+00  0.00000000E+00  0.00000000E+00
  0.00000000E+00  0.00000000E+00  0.00000000E+00
  0.00000000E+00  0.00000000E+00  0.00000000E+00
  0.00000000E+00  0.00000000E+00  0.00000000E+00
  0.00000000E+00  0.00000000E+00  0.00000000E+00
  0.00000000E+00  0.00000000E+00  0.00000000E+00
  0.00000000E+00  0.00000000E+00  0.00000000E+00
  0.00000000E+00  0.00000000E+00  0.00000000E+00
  0.00000000E+00  0.00000000E+00  0.00000000E+00
  0.00000000E+00  0.00000000E+00  0.00000000E+00
  0.00000000E+00  0.00000000E+00  0.00000000E+00
  0.00000000E+00  0.00000000E+00  0.00000000E+00
  0.00000000E+00  0.00000000E+00  0.00000000E+00
  0.00000000E+00  0.00000000E+00  0.00000000E+00
  0.00000000E+00  0.00000000E+00  0.00000000E+00
  0.00000000E+00  0.00000000E+00  0.00000000E+00
  0.00000000E+00  0.00000000E+00  0.00000000E+00
  0.00000000E+00  0.00000000E+00  0.00000000E+00
  0.00000000E+00  0.00000000E+00  0.00000000E+00
  0.00000000E+00  0.00000000E+00  0.00000000E+00
  0.00000000E+00  0.00000000E+00  0.00000000E+00
  0.00000000E+00  0.00000000E+00  0.00000000E+00
  0.00000000E+00  0.00000000E+00  0.00000000E+00
  0.00000000E+00  0.00000000E+00  0.00000000E+00
  0.00000000E+00  0.00000000E+00  0.00000000E+00
  0.00000000E+00  0.00000000E+00  0.00000000E+00
  0.00000000E+00  0.00000000E+00  0.00000000E+00
  0.00000000E+00  0.00000000E+00  0.00000000E+00
  0.00000000E+00  0.00000000E+00  0.00000000E+00
  0.00000000E+00  0.00000000E+00  0.00000000E+00
  0.00000000E+00  0.00000000E+00  0.00000000E+00
  0.00000000E+00  0.00000000E+00  0.00000000E+00
  0.00000000E+00  0.00000000E+00  0.00000000E+00
  0.00000000E+00  0.00000000E+00  0.00000000E+00
  0.00000000E+00  0.00000000E+00  0.00000000E+00
  0.00000000E+00  0.00000000E+00  0.00000000E+00
  0.00000000E+00  0.00000000E+00  0.00000000E+00
  0.00000000E+00  0.00000000E+00  0.00000000E+00
  0.00000000E+00  0.00000000E+00  0.00000000E+00
  0.00000000E+00  0.00000000E+00  0.00000000E+00
  0.00000000E+00  0.00000000E+00  0.00000000E+00
  0.00000000E+00  0.00000000E+00  0.00000000E+00
  0.00000000E+00  0.00000000E+00  0.00000000E+00
  0.00000000E+00  0.00000000E+00  0.00000000E+00
  0.00000000E+00  0.00000000E+00  0.00000000E+00
  0.00000000E+00  0.00000000E+00  0.00000000E+00
  0.00000000E+00  0.00000000E+00  0.00000000E+00
  0.00000000E+00  0.00000000E+00  0.00000000E+00
