Generated by VASPKIT code
 1.000000
   10.1501999999999999    0.0000000000000000    0.0000000000000000
   -5.0750846599999999    8.7903399100000001    0.0000000000000000
    0.0000000000000000   -0.0000704100000000   34.9384000000000015
   Mo   Si   N    Ni   Te   O    H 
    12    23    48    12     4    24     1
Selective Dynamics
Direct
    0.1667775718819438    0.0046233792275560    0.6078066278132136    F  F  F    Mo001
    0.1662312061431084    0.5041115362607316    0.6081974842931901    F  F  F    Mo002
    0.6663108024967135    0.0047133316776493    0.6080904882838161    F  F  F    Mo003
    0.6663987200109648    0.5047788918365766    0.6081608993697948    F  F  F    Mo004
    0.3327739767524069    0.3379514770669484    0.6081832228866053    F  F  F    Mo005
    0.3330653195548641    0.8381458663832168    0.6080325010139280    F  F  F    Mo006
    0.8326494460295462    0.3376523148161563    0.6078317830497987    F  F  F    Mo007
    0.8330651635398274    0.8373620610527562    0.6082152310036514    F  F  F    Mo008
    0.0003030440627141    0.1705493099229276    0.6081052854714597    F  F  F    Mo009
    0.9989936286147681    0.6698456081473075    0.6080887578082776    F  F  F    Mo010
    0.4997031754539876    0.1708986133509214    0.6077989661001272    F  F  F    Mo011
    0.4996463207693315    0.6707773495835649    0.6080457414732650    F  F  F    Mo012
    0.1663388728841919    0.1705231374256425    0.6941912720997947    F  F  F    Si001
    0.1662432134457991    0.6705149114767294    0.6942550676342427    F  F  F    Si002
    0.6662689082242087    0.1705243852012830    0.6940922675365074    F  F  F    Si003
    0.6663393815108266    0.6705786003716990    0.6942966560716802    F  F  F    Si004
    0.1767116209298580    0.1795961725835979    0.5207364322045439    F  F  F    Si005
    0.1653854426980640    0.6695371044636527    0.5224497643760894    F  F  F    Si006
    0.6624967998206396    0.1694292923882939    0.5209585361645529    F  F  F    Si007
    0.6685176993158806    0.6679941745532548    0.5211358433343204    F  F  F    Si008
    0.3329873457924203    0.0038774569408995    0.6940651055192347    F  F  F    Si009
    0.3328852983216128    0.5038691895120694    0.6942888642632742    F  F  F    Si010
    0.8330160197144785    0.0038829769378315    0.6942655847171934    F  F  F    Si011
    0.8329015890496728    0.5038018290128993    0.6942059872779567    F  F  F    Si012
    0.3376830971886552    0.0070483239087880    0.5207105936578701    F  F  F    Si013
    0.3307676638615306    0.4990082715731237    0.5212940378754006    F  F  F    Si014
    0.8341382370323620    0.0040958142759553    0.5226313938231891    F  F  F    Si015
    0.8223050754329202    0.5025815886073155    0.5206931860166736    F  F  F    Si016
    0.9995839291532856    0.3371384928720642    0.6941689701793780    F  F  F    Si017
    0.9997253767415172    0.8371900069349228    0.6941723008456222    F  F  F    Si018
    0.4996199858982955    0.3371454896389114    0.6941685742269789    F  F  F    Si019
    0.4996382451698606    0.8372092564220854    0.6942126259309297    F  F  F    Si020
    0.9986845222300545    0.3348440858412726    0.5221650608429677    F  F  F    Si021
    0.0009417807613476    0.8354890730416915    0.5222614531969788    F  F  F    Si022
    0.4995612035366764    0.8344695276325071    0.5222517083630729    F  F  F    Si023
    0.1684325778275740    0.1722509226517313    0.5721109043783135    F  F  F     N001
    0.1663466361641940    0.6707400542977977    0.5728156308760990    F  F  F     N002
    0.6668376675169432    0.1722511002764540    0.5719692631957668    F  F  F     N003
    0.6673475535074264    0.6718487428575154    0.5723405288276480    F  F  F     N004
    0.1663033425322404    0.1704686134564374    0.6438964156619078    F  F  F     N005
    0.1662023201283019    0.6708846609935361    0.6439601496254260    F  F  F     N006
    0.6664285544869043    0.1711055637930553    0.6437586277314261    F  F  F     N007
    0.6664479637944666    0.6713672181533383    0.6440131722616212    F  F  F     N008
    0.1664284667968489    0.0038760454430378    0.7087296799420452    F  F  F     N009
    0.1661259249362981    0.5038155749097637    0.7088656016703394    F  F  F     N010
    0.6662976927940816    0.0039442628865464    0.7087795139569795    F  F  F     N011
    0.6662482575939722    0.5037997304480401    0.7088358357168159    F  F  F     N012
    0.1647981200779310    0.0033594207005464    0.5073274319110258    F  F  F     N013
    0.1609368897361262    0.5036628162190658    0.5075429401930405    F  F  F     N014
    0.6681847547345221    0.0006408906939319    0.5083694808651538    F  F  F     N015
    0.6747452313820836    0.5170435110243945    0.5041143168443935    F  F  F     N016
    0.3329674314492156    0.0053128546978292    0.5718670779303515    F  F  F     N017
    0.3318559448384656    0.5042131370392688    0.5724180381385656    F  F  F     N018
    0.8329394066907556    0.0039168063913461    0.5729333034399091    F  F  F     N019
    0.8306307374744150    0.5034100330696925    0.5720323748832539    F  F  F     N020
    0.3329921470118486    0.0043803696078433    0.6437309010308899    F  F  F     N021
    0.3327756967310173    0.5046311034114398    0.6440164014677040    F  F  F     N022
    0.8330765385717049    0.0042578151240263    0.6439862975197854    F  F  F     N023
    0.8329320628410534    0.5038481183535604    0.6438943846090665    F  F  F     N024
    0.3329490349576778    0.3371662232833563    0.7088251565275873    F  F  F     N025
    0.3329298217235696    0.8372757677549850    0.7087695727389466    F  F  F     N026
    0.8328415980534739    0.3370812144550763    0.7087436274288929    F  F  F     N027
    0.8331135002757114    0.8372721155475287    0.7088636554648153    F  F  F     N028
    0.3251241691322980    0.3417234739883422    0.5046554608232733    F  F  F     N029
    0.3314210401644075    0.8322029072985151    0.5081650056053547    F  F  F     N030
    0.8349628301018910    0.3387568798153734    0.5070644033414080    F  F  F     N031
    0.8387222891011406    0.8424234563559676    0.5078079485409120    F  F  F     N032
    0.9995355668076935    0.3365411013071510    0.5725407236343865    F  F  F     N033
    0.9998281336991754    0.8363861016070975    0.5725776768951970    F  F  F     N034
    0.4996317746587732    0.3384829633985296    0.5740547513363392    F  F  F     N035
    0.4996667081859615    0.8372747259659464    0.5727015180943543    F  F  F     N036
    0.9994622851942750    0.3371706259555034    0.6438598768800202    F  F  F     N037
    0.9999155643513175    0.8372514627828114    0.6438593196430038    F  F  F     N038
    0.4995927616806216    0.3373970866453902    0.6439599866138906    F  F  F     N039
    0.4996331578184658    0.8378832241197760    0.6438970587857762    F  F  F     N040
    0.9997014118850287    0.1705633250339106    0.7088221283900216    F  F  F     N041
    0.9995436332309153    0.6704709429376173    0.7088259917579592    F  F  F     N042
    0.4996057508650631    0.1704111333223017    0.7087156340988571    F  F  F     N043
    0.4996189640905399    0.6705703589343266    0.7088634245601236    F  F  F     N044
    0.5004393166560943    0.1439561212280956    0.5018791387491232    F  F  F     N045
    0.4994819974306859    0.6687297077726340    0.5082577293198651    F  F  F     N046
    0.9987781190371344    0.1678669065888646    0.5081466545856236    F  F  F     N047
    0.0002702750023714    0.6681548362515510    0.5079266952230137    F  F  F     N048
    0.9977213103989376    0.9927389952461806    0.3549891757486328    F  F  F    Ni001
    0.0107991854145467    0.4983258425697443    0.3529629607890688    F  F  F    Ni002
    0.5032396640913289    0.9856418848486219    0.3534452419168759    F  F  F    Ni003
    0.4943860836620660    0.4962574394935098    0.3549062559213219    F  F  F    Ni004
    0.9998614216085842    0.9899064375148935    0.4512766784823662    F  F  F    Ni005
    0.9927634361695061    0.4921936698989605    0.4504843225118139    F  F  F    Ni006
    0.5060457329669914    0.0051138433319038    0.4507809473360412    F  F  F    Ni007
    0.4996311214666216    0.4681556495729982    0.4582810437629753    F  F  F    Ni008
    0.3337277229608151    0.1561784645854021    0.3966630248606420    F  F  F    Ni009
    0.3355658277279888    0.6598042097556703    0.3989776996223927    F  F  F    Ni010
    0.8371502555359601    0.1613559515716770    0.3973788766512961    F  F  F    Ni011
    0.8299908394305233    0.6580753965511358    0.3973029903634395    F  F  F    Ni012
    0.1703986572675995    0.3270493272720117    0.4008849456082795    F  F  F    Te001
    0.1643334011784717    0.8232234256275449    0.3978909720907829    F  F  F    Te002
    0.6694171961044019    0.3269623487675802    0.3937512454949894    F  F  F    Te003
    0.6668228770323110    0.8235809401238442    0.4008012701241571    F  F  F    Te004
    0.3169516267710396    0.3063441736169285    0.3668578976259989    F  F  F     O001
    0.3161717335607429    0.8156220308411203    0.3650048730888082    F  F  F     O002
    0.8249287129797062    0.3199472646956726    0.3622632736136308    F  F  F     O003
    0.8172472241934839    0.8182352713283635    0.3661638996635208    F  F  F     O004
    0.1821035984446938    0.4828978035840406    0.3658186916746523    F  F  F     O005
    0.1814434405936113    0.9970110622980831    0.3664677977017703    F  F  F     O006
    0.6723032705933817    0.4861921453100875    0.3624721379659896    F  F  F     O007
    0.6869870264515029    0.9953976396070924    0.3673449265517033    F  F  F     O008
    0.9996086833131806    0.1739657789018467    0.3681785807662030    F  F  F     O009
    0.0073119163405612    0.6785141929695143    0.3637098684122859    F  F  F     O010
    0.5074748840699768    0.1704319600198163    0.3623430463191048    F  F  F     O011
    0.5088819695560994    0.6828090285697251    0.3650528219741512    F  F  F     O012
    0.9976631113936379    0.3162012218454814    0.4287059314547232    F  F  F     O013
    0.0050133641107863    0.8182835178192047    0.4289467807355201    F  F  F     O014
    0.4996108691248317    0.3046136004626579    0.4254855100898597    F  F  F     O015
    0.5054803344248825    0.8251715536931626    0.4296483434282662    F  F  F     O016
    0.1731485373417561    0.1679194170249553    0.4300437818294484    F  F  F     O017
    0.1703986012850169    0.6701294539801563    0.4294140752954386    F  F  F     O018
    0.6870581070969950    0.1744470650315871    0.4251275488240536    F  F  F     O019
    0.6658335673415299    0.6625450421399911    0.4297111922486891    F  F  F     O020
    0.3279018792788152    0.4855777706969620    0.4302506981761037    F  F  F     O021
    0.3226942424550252    0.9958891281432276    0.4267499409797362    F  F  F     O022
    0.8163045264620042    0.4835468496000500    0.4270238543405368    F  F  F     O023
    0.8230488093032524    0.9889872001197842    0.4307258801810404    F  F  F     O024
    0.4993239227498582    0.3435950711751921    0.5444213093318266    T  T  T     H001
